MnZn_NC-prerelax
1.0
  14.80200000    0.00000000    0.00000000
  -7.40100000   12.81890803    0.00000000
   0.00000000    0.00000000   15.00000000
Mn Zn C N
1 1 62 6
direct
   0.52885614    0.55593740    0.11937595 Mn
   0.35901489    0.55601898    0.15461309 Zn
   1.00114507    1.00185558    0.11297649 C
   0.05704201    0.11391727    0.11313868 C
   0.16882149    1.00433661    0.11304779 C
   0.22491133    0.11634764    0.11333175 C
   0.33407844    1.00159520    0.11292105 C
   0.39029407    0.11347256    0.11299660 C
   0.49906678    0.99785843    0.11305236 C
   0.55520210    0.10988046    0.11300572 C
   0.66444395    0.99534439    0.11321100 C
   0.72031822    0.10732594    0.11303874 C
   0.83262388    0.99818352    0.11291482 C
   0.88827741    0.11008697    0.11293301 C
   1.00018610    0.16730856    0.11317920 C
   0.05490175    0.27898210    0.11360665 C
   0.16936394    0.17259002    0.11372013 C
   0.22425680    0.28426880    0.11621012 C
   0.33649923    0.17179772    0.11342420 C
   0.39366519    0.28332253    0.11516753 C
   0.50047187    0.16708711    0.11312316 C
   0.55740269    0.27902815    0.11334799 C
   0.66571198    0.16401968    0.11313540 C
   0.72203476    0.27583609    0.11311172 C
   0.83165851    0.16401279    0.11308271 C
   0.88706678    0.27580064    0.11299829 C
   0.99780442    0.33249984    0.11311238 C
   0.05282610    0.44398798    0.11277522 C
   0.16621297    0.33806791    0.11585969 C
   0.33872467    0.34280437    0.11969743 C
   0.50472351    0.33733720    0.11442245 C
   0.66805316    0.33251269    0.11320138 C
   0.72422130    0.44392094    0.11321161 C
   0.83252767    0.33180658    0.11304496 C
   0.88835612    0.44355463    0.11284083 C
   0.99859897    0.49989231    0.11262908 C
   0.05458613    0.61187610    0.11261110 C
   0.16319053    0.49874262    0.11391061 C
   0.22030353    0.61301075    0.11364388 C
   0.66902732    0.49925143    0.11371093 C
   0.72565470    0.61243687    0.11365160 C
   0.83445248    0.49990978    0.11297247 C
   0.89044248    0.61186372    0.11296562 C
   1.00071228    0.66822520    0.11281813 C
   0.05663496    0.77996170    0.11301389 C
   0.16472236    0.66778037    0.11259638 C
   0.22120921    0.77925801    0.11290359 C
   0.38400809    0.77366062    0.11519817 C
   0.55180001    0.76897134    0.11878491 C
   0.72321058    0.77431485    0.11414536 C
   0.83616958    0.66776990    0.11315313 C
   0.89137857    0.77916486    0.11312148 C
   1.00204900    0.83588885    0.11307317 C
   0.05750798    0.94768771    0.11310708 C
   0.16717492    0.83593975    0.11293116 C
   0.22351475    0.94768728    0.11305374 C
   0.33182705    0.83277522    0.11327436 C
   0.38879799    0.94441412    0.11305185 C
   0.49583421    0.82750831    0.11559103 C
   0.55267876    0.93918144    0.11349454 C
   0.66615262    0.82834451    0.11474549 C
   0.72056190    0.93985527    0.11324117 C
   0.83420482    0.83263806    0.11320095 C
   0.88921584    0.94460360    0.11302324 C
   0.21493764    0.44549098    0.11766952 N
   0.39098491    0.44463994    0.12917777 N
   0.56354133    0.44647312    0.11466958 N
   0.32536276    0.66623524    0.11664249 N
   0.50214932    0.66705090    0.12748000 N
   0.67297710    0.66521795    0.11448239 N
