PtAu_NC-prerelax
1.0
  14.80200000    0.00000000    0.00000000
  -7.40100000   12.81890803    0.00000000
   0.00000000    0.00000000   15.00000000
Pt Au C N
1 1 62 6
direct
   0.52490738    0.55584037    0.10782724 Pt
   0.35831278    0.55681009    0.20797802 Au
   1.00081811    1.00150304    0.11333813 C
   0.05623003    0.11322785    0.11348995 C
   0.16895130    1.00443717    0.11329897 C
   0.22454639    0.11608550    0.11402077 C
   0.33429087    1.00208228    0.11282846 C
   0.39038420    0.11392772    0.11350230 C
   0.49887200    0.99843942    0.11298431 C
   0.55519423    0.11017248    0.11317496 C
   0.66426468    0.99552741    0.11356001 C
   0.72033309    0.10721517    0.11313233 C
   0.83226329    0.99774981    0.11338581 C
   0.88801012    0.10961180    0.11303931 C
   0.99974899    0.16695147    0.11316606 C
   0.05447558    0.27865763    0.11301435 C
   0.16828654    0.17177123    0.11416697 C
   0.22230788    0.28255238    0.11578946 C
   0.33631009    0.17202474    0.11419298 C
   0.39301394    0.28308036    0.11503120 C
   0.50066714    0.16752025    0.11353773 C
   0.55752077    0.27918092    0.11387770 C
   0.66578029    0.16392227    0.11318957 C
   0.72222254    0.27561681    0.11322733 C
   0.83173357    0.16376011    0.11295743 C
   0.88731944    0.27558826    0.11234621 C
   0.99805044    0.33243446    0.11190732 C
   0.05403287    0.44405992    0.11036568 C
   0.16550101    0.33818264    0.11502387 C
   0.33688294    0.34165352    0.11768435 C
   0.50405699    0.33680615    0.11402244 C
   0.66847608    0.33228398    0.11372892 C
   0.72586584    0.44363630    0.11400934 C
   0.83294054    0.33150751    0.11255130 C
   0.88963025    0.44338238    0.11217597 C
   0.99986536    0.49987174    0.11070692 C
   0.05586227    0.61187709    0.11057957 C
   0.16463676    0.49834062    0.11044646 C
   0.22209717    0.61338937    0.11033882 C
   0.67175548    0.49924463    0.11406591 C
   0.72844177    0.61257426    0.11393542 C
   0.83607869    0.49982599    0.11322402 C
   0.89211482    0.61186586    0.11318142 C
   1.00210134    0.66833308    0.11202742 C
   0.05727635    0.78021295    0.11234413 C
   0.16584602    0.66773300    0.11004897 C
   0.22151881    0.77935346    0.11136966 C
   0.38323105    0.77353941    0.11437282 C
   0.55108563    0.77008514    0.11663434 C
   0.72307664    0.77483407    0.11357125 C
   0.83812626    0.66810537    0.11385611 C
   0.89202251    0.77942783    0.11351915 C
   1.00244153    0.83609854    0.11309542 C
   0.05767824    0.94775827    0.11324835 C
   0.16759076    0.83615138    0.11199770 C
   0.22384952    0.94794129    0.11279724 C
   0.33173211    0.83304005    0.11228176 C
   0.38868026    0.94473345    0.11257966 C
   0.49561974    0.82911840    0.11501343 C
   0.55234664    0.93986797    0.11351985 C
   0.66575623    0.82854754    0.11447994 C
   0.72008750    0.93959537    0.11379184 C
   0.83412793    0.83247983    0.11357270 C
   0.88891160    0.94414702    0.11341706 C
   0.21547325    0.44536051    0.11809125 N
   0.38265443    0.44296369    0.12202971 N
   0.56606135    0.44680600    0.11189565 N
   0.32582232    0.66636161    0.11829085 N
   0.49504989    0.66869576    0.11936987 N
   0.67511759    0.66494605    0.11134860 N
