AgCd_NC-prerelax
1.0
  14.80200000    0.00000000    0.00000000
  -7.40100000   12.81890803    0.00000000
   0.00000000    0.00000000   15.00000000
Ag Cd C N
1 1 62 6
direct
   0.52041644    0.55608187    0.13760121 Ag
   0.34774947    0.55650390    0.20750957 Cd
   1.00103774    1.00133307    0.11093906 C
   0.05661713    0.11306031    0.11210277 C
   0.16886696    1.00382676    0.11196288 C
   0.22461687    0.11545852    0.11469156 C
   0.33420539    1.00141791    0.11085704 C
   0.39029246    0.11317669    0.11163707 C
   0.49939818    0.99863269    0.11145993 C
   0.55555850    0.11036069    0.11066287 C
   0.66502492    0.99623761    0.11372430 C
   0.72090363    0.10785343    0.11135911 C
   0.83296256    0.99850927    0.11111583 C
   0.88863411    0.11027030    0.11070458 C
   1.00041213    0.16715300    0.11129303 C
   0.05520196    0.27880664    0.11063868 C
   0.16861232    0.17151930    0.11499603 C
   0.22227710    0.28183878    0.12147497 C
   0.33665825    0.17169916    0.11462803 C
   0.39309235    0.28209518    0.12001272 C
   0.50064959    0.16715701    0.11082608 C
   0.55737410    0.27865899    0.10898899 C
   0.66619746    0.16454198    0.11067005 C
   0.72243669    0.27625322    0.10945275 C
   0.83232473    0.16454677    0.11069567 C
   0.88785610    0.27630839    0.10968557 C
   0.99874597    0.33282321    0.10895894 C
   0.05478048    0.44427994    0.10760032 C
   0.16635152    0.33751846    0.11430365 C
   0.33556446    0.33788827    0.14024391 C
   0.50443821    0.33695855    0.11072824 C
   0.66804393    0.33258466    0.10773636 C
   0.72412227    0.44407605    0.10566469 C
   0.83321777    0.33227853    0.10931418 C
   0.88917994    0.44376511    0.10882133 C
   0.99990571    0.49998341    0.10816630 C
   0.05577106    0.61170367    0.10816181 C
   0.16568318    0.49841316    0.10580648 C
   0.22307816    0.61322121    0.10548801 C
   0.66840296    0.49856774    0.10064038 C
   0.72570801    0.61307837    0.10026752 C
   0.83480808    0.50001812    0.10755200 C
   0.89064237    0.61167086    0.10756722 C
   1.00126768    0.66792120    0.10884933 C
   0.05678215    0.77940882    0.10942138 C
   0.16633747    0.66738834    0.10737054 C
   0.22173041    0.77884865    0.10865263 C
   0.38465071    0.77417058    0.11329575 C
   0.55349811    0.77389852    0.13923001 C
   0.72330259    0.77470820    0.10968118 C
   0.83591006    0.66760236    0.10545080 C
   0.89130051    0.77909978    0.10748966 C
   1.00201971    0.83542380    0.10954138 C
   0.05747805    0.94713240    0.11101318 C
   0.16737994    0.83538368    0.10972759 C
   0.22361343    0.94714429    0.11097780 C
   0.33220465    0.83286534    0.10998135 C
   0.38909340    0.94453005    0.11085741 C
   0.49626250    0.82987476    0.12026525 C
   0.55296198    0.94020448    0.11395507 C
   0.66677472    0.82957504    0.11876512 C
   0.72081537    0.93998721    0.11361795 C
   0.83452763    0.83301518    0.10841884 C
   0.88933009    0.94452375    0.11051884 C
   0.21762907    0.44495729    0.11012280 N
   0.37882835    0.42561369    0.18349875 N
   0.56233835    0.44379482    0.09910144 N
   0.32853215    0.66671168    0.10901619 N
   0.50947069    0.68665081    0.18319426 N
   0.67447899    0.66786455    0.09784384 N
