MnZr_NC-prerelax
1.0
  14.80200000    0.00000000    0.00000000
  -7.40100000   12.81890803    0.00000000
   0.00000000    0.00000000   15.00000000
Mn Zr C N
1 1 62 6
direct
   0.53164396    0.55588257    0.10992485 Mn
   0.35644380    0.55613358    0.18290406 Zr
   1.00097934    1.00154493    0.11301972 C
   0.05694194    0.11354860    0.11322225 C
   0.16869715    1.00403457    0.11314322 C
   0.22479306    0.11614757    0.11372541 C
   0.33405267    1.00160472    0.11289264 C
   0.39011531    0.11347253    0.11314143 C
   0.49927590    0.99818099    0.11296451 C
   0.55531393    0.11018700    0.11298236 C
   0.66450676    0.99556155    0.11341387 C
   0.72054509    0.10767801    0.11306055 C
   0.83247092    0.99822331    0.11300533 C
   0.88829988    0.11011257    0.11294784 C
   1.00021581    0.16710817    0.11312872 C
   0.05504903    0.27879704    0.11293991 C
   0.16910607    0.17203162    0.11395869 C
   0.22445294    0.28405823    0.11593459 C
   0.33627718    0.17166866    0.11378498 C
   0.39339088    0.28376035    0.11545980 C
   0.50040013    0.16727994    0.11316428 C
   0.55727833    0.27931875    0.11340126 C
   0.66586435    0.16432883    0.11307901 C
   0.72214326    0.27609301    0.11312910 C
   0.83185603    0.16426911    0.11304992 C
   0.88734321    0.27602133    0.11295894 C
   0.99812226    0.33258402    0.11265239 C
   0.05309848    0.44389907    0.11191308 C
   0.16626863    0.33750819    0.11387638 C
   0.33794546    0.34132427    0.11978395 C
   0.50461862    0.33775071    0.11426503 C
   0.66796281    0.33270999    0.11325427 C
   0.72402805    0.44405212    0.11339373 C
   0.83274934    0.33203049    0.11307191 C
   0.88854862    0.44367556    0.11303084 C
   0.99891013    0.49997432    0.11250410 C
   0.05481796    0.61178068    0.11245590 C
   0.16372286    0.49915388    0.11080854 C
   0.22044521    0.61257927    0.11052193 C
   0.66879064    0.49939642    0.11347900 C
   0.72523724    0.61229104    0.11343508 C
   0.83443039    0.49998307    0.11325597 C
   0.89031396    0.61174912    0.11325112 C
   1.00073913    0.66807200    0.11298357 C
   0.05656157    0.77969219    0.11299605 C
   0.16508234    0.66785168    0.11167709 C
   0.22142118    0.77915524    0.11231521 C
   0.38463839    0.77422311    0.11308219 C
   0.55243890    0.77036525    0.11885898 C
   0.72273493    0.77398419    0.11394158 C
   0.83582016    0.66764304    0.11335230 C
   0.89107603    0.77899400    0.11318243 C
   1.00188188    0.83560395    0.11307840 C
   0.05735084    0.94736724    0.11308646 C
   0.16718168    0.83571142    0.11279846 C
   0.22344709    0.94745562    0.11299064 C
   0.33214448    0.83294014    0.11243981 C
   0.38897992    0.94462026    0.11283623 C
   0.49626817    0.82766991    0.11511213 C
   0.55295462    0.93969760    0.11348636 C
   0.66545687    0.82792299    0.11490240 C
   0.72044020    0.94000730    0.11343139 C
   0.83380339    0.83240822    0.11323030 C
   0.88897063    0.94444985    0.11304469 C
   0.21678031    0.44574220    0.11297156 N
   0.39032384    0.44598289    0.13207670 N
   0.56281523    0.44608584    0.11319901 N
   0.32691123    0.66595516    0.11216097 N
   0.50006753    0.66571722    0.13099722 N
   0.67258191    0.66562174    0.11304740 N
