IrAu_NC-prerelax
1.0
  14.80200000    0.00000000    0.00000000
  -7.40100000   12.81890803    0.00000000
   0.00000000    0.00000000   15.00000000
Ir Au C N
1 1 62 6
direct
   0.52010479    0.55522244    0.10969949 Ir
   0.36150599    0.56199568    0.21113928 Au
   1.00074922    1.00125834    0.11353911 C
   0.05640088    0.11306044    0.11383047 C
   0.16854707    1.00363606    0.11329741 C
   0.22435548    0.11532192    0.11418875 C
   0.33394439    1.00101336    0.11265329 C
   0.39003472    0.11275378    0.11355287 C
   0.49922454    0.99861581    0.11305274 C
   0.55536806    0.11042658    0.11316885 C
   0.66478860    0.99626106    0.11335516 C
   0.72073139    0.10803275    0.11287229 C
   0.83290964    0.99872499    0.11325226 C
   0.88863357    0.11052594    0.11286184 C
   1.00030262    0.16737294    0.11324479 C
   0.05517853    0.27910910    0.11316504 C
   0.16838410    0.17134799    0.11452519 C
   0.22272561    0.28239689    0.11546797 C
   0.33597247    0.17064977    0.11430403 C
   0.39246059    0.28163596    0.11463413 C
   0.50040963    0.16708763    0.11362073 C
   0.55716915    0.27896787    0.11396125 C
   0.66608850    0.16463173    0.11309928 C
   0.72235892    0.27625878    0.11315885 C
   0.83213181    0.16457691    0.11260938 C
   0.88763657    0.27619462    0.11196988 C
   0.99846400    0.33269554    0.11174089 C
   0.05447029    0.44407339    0.11050329 C
   0.16633627    0.33854230    0.11539083 C
   0.33621841    0.33927907    0.11538488 C
   0.50354324    0.33607835    0.11396938 C
   0.66811671    0.33255821    0.11372828 C
   0.72466468    0.44371234    0.11379293 C
   0.83315883    0.33223477    0.11233761 C
   0.88941414    0.44372423    0.11195513 C
   1.00000790    0.49994582    0.11048362 C
   0.05577212    0.61160025    0.11018397 C
   0.16539225    0.49822644    0.11162728 C
   0.22223617    0.61297783    0.11176509 C
   0.66992227    0.49921173    0.11362215 C
   0.72637124    0.61243936    0.11357297 C
   0.83522247    0.49993449    0.11304710 C
   0.89105467    0.61170625    0.11293514 C
   1.00148205    0.66786869    0.11163442 C
   0.05679730    0.77939206    0.11197202 C
   0.16607552    0.66740002    0.11004097 C
   0.22163331    0.77886365    0.11112904 C
   0.38373369    0.77342237    0.11595899 C
   0.55251284    0.77195260    0.11623980 C
   0.72307641    0.77534179    0.11360561 C
   0.83667869    0.66792303    0.11361066 C
   0.89141490    0.77908876    0.11345704 C
   1.00202192    0.83545547    0.11297742 C
   0.05732618    0.94709233    0.11331214 C
   0.16728432    0.83535249    0.11148322 C
   0.22335717    0.94698235    0.11250461 C
   0.33200376    0.83257112    0.11256676 C
   0.38881766    0.94431034    0.11252751 C
   0.49619325    0.82918188    0.11543494 C
   0.55289604    0.94036262    0.11359005 C
   0.66623841    0.82964659    0.11417791 C
   0.72093842    0.94084274    0.11354939 C
   0.83392570    0.83256201    0.11357596 C
   0.88905489    0.94445678    0.11347290 C
   0.21702215    0.44561640    0.11886867 N
   0.38544586    0.44151506    0.11489770 N
   0.56391441    0.44687179    0.11213770 N
   0.32638215    0.66634294    0.12211567 N
   0.49884678    0.66930029    0.11928362 N
   0.67278372    0.66469415    0.11218042 N
