TiW_NC-prerelax
1.0
  14.80200000    0.00000000    0.00000000
  -7.40100000   12.81890803    0.00000000
   0.00000000    0.00000000   15.00000000
Ti W C N
1 1 62 6
direct
   0.53061682    0.55578489    0.16045122 Ti
   0.34826653    0.55647560    0.15727307 W
   1.00025817    1.00019512    0.11216249 C
   0.05583797    0.11167589    0.11236957 C
   0.16849873    1.00276969    0.11286715 C
   0.22429097    0.11471446    0.11362219 C
   0.33423179    1.00231201    0.11267457 C
   0.39017532    0.11417282    0.11285732 C
   0.49992078    0.99997192    0.11221333 C
   0.55580806    0.11148952    0.11217790 C
   0.66541892    0.99706493    0.11326940 C
   0.72150204    0.10896998    0.11269285 C
   0.83194066    0.99762099    0.11257532 C
   0.88780406    0.10943067    0.11252202 C
   0.99916592    0.16548959    0.11236846 C
   0.05389730    0.27699989    0.11218179 C
   0.16796011    0.16954819    0.11329774 C
   0.22291858    0.28105425    0.11490881 C
   0.33600590    0.17172447    0.11386135 C
   0.39287386    0.28393802    0.11612845 C
   0.50058561    0.16817471    0.11240254 C
   0.55739872    0.27989517    0.11191421 C
   0.66656693    0.16549523    0.11234681 C
   0.72273006    0.27694107    0.11211314 C
   0.83262778    0.16507501    0.11274396 C
   0.88827613    0.27680207    0.11298150 C
   0.99910447    0.33304863    0.11305587 C
   0.05567394    0.44455428    0.11397134 C
   0.16441940    0.33362953    0.11190011 C
   0.33594666    0.33989996    0.12125298 C
   0.50448576    0.33810612    0.11350517 C
   0.66824562    0.33340053    0.11137139 C
   0.72426252    0.44445828    0.11051365 C
   0.83352964    0.33275634    0.11287586 C
   0.88956118    0.44393546    0.11310652 C
   1.00060127    0.49997065    0.11421323 C
   0.05652885    0.61170590    0.11417111 C
   0.16755807    0.49893069    0.11549582 C
   0.22446231    0.61263138    0.11480620 C
   0.66839671    0.49946447    0.11020401 C
   0.72480501    0.61225862    0.11013421 C
   0.83504959    0.50021031    0.11178378 C
   0.89070332    0.61143148    0.11172235 C
   1.00148349    0.66767511    0.11299111 C
   0.05660743    0.77887172    0.11274053 C
   0.16703382    0.66707436    0.11365482 C
   0.22194861    0.77858413    0.11274446 C
   0.38671702    0.77786248    0.11075789 C
   0.55214766    0.77205635    0.12062787 C
   0.72236159    0.77374911    0.11322447 C
   0.83567121    0.66719630    0.11037855 C
   0.89071876    0.77826948    0.11119013 C
   1.00164614    0.83470922    0.11199823 C
   0.05701238    0.94618383    0.11236922 C
   0.16729546    0.83483611    0.11288911 C
   0.22343956    0.94661002    0.11283619 C
   0.33280338    0.83456379    0.11180336 C
   0.38943348    0.94611264    0.11230874 C
   0.49777184    0.83067769    0.11412080 C
   0.55423573    0.94216185    0.11290606 C
   0.66499487    0.82800206    0.11561578 C
   0.72025281    0.94012384    0.11342805 C
   0.83344859    0.83188334    0.11169289 C
   0.88839025    0.94359772    0.11220927 C
   0.21587891    0.44008781    0.11017314 N
   0.38453108    0.44378270    0.13604837 N
   0.56136049    0.44565650    0.11185817 N
   0.33146099    0.67128206    0.10732923 N
   0.49709001    0.66846681    0.13595909 N
   0.67169237    0.66617421    0.11165368 N
