RuW_NC-prerelax
1.0
  14.80200000    0.00000000    0.00000000
  -7.40100000   12.81890803    0.00000000
   0.00000000    0.00000000   15.00000000
Ru W C N
1 1 62 6
direct
   0.51918428    0.55580948    0.11447219 Ru
   0.35828027    0.55595273    0.16471481 W
   0.99979363    0.99982926    0.11210804 C
   0.05524276    0.11115801    0.11225985 C
   0.16807550    1.00228569    0.11238172 C
   0.22367026    0.11378719    0.11344142 C
   0.33404857    1.00142931    0.11207896 C
   0.38984516    0.11305546    0.11266445 C
   0.49994237    1.00056524    0.11198756 C
   0.55579007    0.11190026    0.11202666 C
   0.66575736    0.99795488    0.11304983 C
   0.72163204    0.10944613    0.11221753 C
   0.83269311    0.99868346    0.11247741 C
   0.88847772    0.11029947    0.11208665 C
   0.99965975    0.16609014    0.11218239 C
   0.05478220    0.27793966    0.11230330 C
   0.16687678    0.16844850    0.11344012 C
   0.22116716    0.27930049    0.11611202 C
   0.33545436    0.17020368    0.11385616 C
   0.39228197    0.28177533    0.11664583 C
   0.50046175    0.16805853    0.11261577 C
   0.55725629    0.27981152    0.11317090 C
   0.66666458    0.16586000    0.11217384 C
   0.72271173    0.27712394    0.11235421 C
   0.83283536    0.16552973    0.11218846 C
   0.88841541    0.27706349    0.11222510 C
   0.99933160    0.33326935    0.11246277 C
   0.05588366    0.44453105    0.11297578 C
   0.16508815    0.33449429    0.11376227 C
   0.33370079    0.33544618    0.12258940 C
   0.50380858    0.33713961    0.11498144 C
   0.66825156    0.33334376    0.11275733 C
   0.72440425    0.44434785    0.11297070 C
   0.83365322    0.33293030    0.11251485 C
   0.88981368    0.44405071    0.11277816 C
   1.00080479    0.50012373    0.11302511 C
   0.05651546    0.61157009    0.11295164 C
   0.16763038    0.49931472    0.11497308 C
   0.22418850    0.61243890    0.11491165 C
   0.66905199    0.49938905    0.11334765 C
   0.72553547    0.61233817    0.11325759 C
   0.83533692    0.50024774    0.11289789 C
   0.89093278    0.61145623    0.11283398 C
   1.00161646    0.66763792    0.11264629 C
   0.05656130    0.77876435    0.11236372 C
   0.16719988    0.66717703    0.11282757 C
   0.22189049    0.77844727    0.11224547 C
   0.38645944    0.77723402    0.11342050 C
   0.55410751    0.77628186    0.12199396 C
   0.72251959    0.77460315    0.11462599 C
   0.83592511    0.66737116    0.11282533 C
   0.89075959    0.77837077    0.11256987 C
   1.00145515    0.83459539    0.11223244 C
   0.05669483    0.94585434    0.11221408 C
   0.16719543    0.83464713    0.11207196 C
   0.22317788    0.94618665    0.11218305 C
   0.33267471    0.83379549    0.11202723 C
   0.38942945    0.94563459    0.11195712 C
   0.49771324    0.83245326    0.11559913 C
   0.55429957    0.94327298    0.11299149 C
   0.66638931    0.82998846    0.11613614 C
   0.72114638    0.94153927    0.11344475 C
   0.83331951    0.83193130    0.11292191 C
   0.88828966    0.94366167    0.11247690 C
   0.21804293    0.44318020    0.11461561 N
   0.38081426    0.43752408    0.13775179 N
   0.56242100    0.44683126    0.11391233 N
   0.33068550    0.66859025    0.11447954 N
   0.49917932    0.67419670    0.13714139 N
   0.67144029    0.66486609    0.11366795 N
