NiCd_NC-prerelax
1.0
  14.80200000    0.00000000    0.00000000
  -7.40100000   12.81890803    0.00000000
   0.00000000    0.00000000   15.00000000
Ni Cd C N
1 1 62 6
direct
   0.52415048    0.55597674    0.11533055 Ni
   0.36084428    0.55675925    0.19862554 Cd
   1.00115397    1.00179285    0.11313800 C
   0.05722971    0.11400107    0.11319547 C
   0.16896370    1.00457396    0.11323737 C
   0.22511628    0.11677788    0.11340712 C
   0.33419249    1.00179478    0.11319067 C
   0.39052695    0.11383522    0.11325587 C
   0.49910426    0.99764947    0.11310546 C
   0.55523180    0.10987249    0.11321108 C
   0.66413815    0.99490906    0.11332970 C
   0.72018985    0.10708175    0.11326645 C
   0.83247889    0.99784441    0.11320231 C
   0.88819351    0.10985616    0.11317708 C
   1.00016681    0.16718654    0.11321266 C
   0.05472679    0.27870869    0.11311616 C
   0.16993593    0.17354427    0.11355619 C
   0.22486682    0.28510249    0.11482922 C
   0.33685509    0.17235368    0.11349139 C
   0.39431948    0.28385157    0.11456879 C
   0.50063950    0.16755388    0.11333188 C
   0.55758345    0.27981928    0.11357534 C
   0.66569917    0.16397751    0.11325927 C
   0.72203039    0.27588558    0.11321924 C
   0.83166058    0.16386521    0.11330228 C
   0.88713336    0.27579287    0.11325189 C
   0.99794700    0.33245985    0.11294996 C
   0.05330093    0.44400141    0.11223526 C
   0.16618273    0.33833062    0.11359245 C
   0.34098037    0.34515337    0.11699546 C
   0.50527203    0.33911034    0.11427831 C
   0.66792360    0.33262895    0.11333260 C
   0.72405919    0.44401889    0.11344790 C
   0.83256881    0.33185317    0.11320852 C
   0.88848236    0.44355231    0.11309439 C
   0.99887526    0.49982653    0.11272324 C
   0.05487340    0.61182554    0.11271161 C
   0.16393094    0.49845941    0.11053075 C
   0.22132942    0.61324080    0.10991594 C
   0.66883156    0.49932377    0.11411816 C
   0.72541185    0.61247728    0.11406585 C
   0.83438022    0.49994131    0.11315133 C
   0.89034083    0.61180073    0.11317576 C
   1.00080387    0.66814161    0.11313176 C
   0.05660707    0.77986359    0.11323289 C
   0.16512189    0.66767433    0.11186415 C
   0.22132833    0.77921441    0.11260581 C
   0.38364709    0.77329008    0.11219302 C
   0.55178185    0.76660576    0.11579685 C
   0.72212042    0.77265142    0.11407802 C
   0.83596544    0.66774167    0.11343346 C
   0.89121253    0.77907885    0.11329528 C
   1.00201814    0.83579624    0.11320220 C
   0.05755632    0.94770578    0.11320276 C
   0.16719621    0.83588283    0.11321915 C
   0.22362927    0.94778982    0.11329082 C
   0.33186014    0.83296436    0.11256609 C
   0.38887683    0.94451644    0.11307374 C
   0.49558456    0.82652070    0.11380418 C
   0.55222842    0.93810917    0.11324756 C
   0.66640960    0.82790521    0.11414149 C
   0.72031406    0.93936011    0.11336353 C
   0.83368777    0.83190204    0.11349329 C
   0.88891218    0.94414821    0.11324444 C
   0.21542260    0.44541105    0.11325783 N
   0.39145530    0.44641373    0.12382769 N
   0.56355591    0.44892704    0.11422825 N
   0.32595659    0.66626684    0.11084923 N
   0.50081132    0.66534652    0.12204804 N
   0.67045406    0.66283126    0.11396402 N
