ScTi_NC-prerelax
1.0
  14.80200000    0.00000000    0.00000000
  -7.40100000   12.81890803    0.00000000
   0.00000000    0.00000000   15.00000000
Sc Ti C N
1 1 62 6
direct
   0.54341684    0.55600559    0.17693517 Sc
   0.35532113    0.55591056    0.15950039 Ti
   1.00105315    1.00173806    0.11258928 C
   0.05695727    0.11375134    0.11343465 C
   0.16863612    1.00408680    0.11371321 C
   0.22472142    0.11625608    0.11482919 C
   0.33386295    1.00164597    0.11306596 C
   0.38989575    0.11362189    0.11293419 C
   0.49903613    0.99799910    0.11317429 C
   0.55514545    0.10993954    0.11248617 C
   0.66438284    0.99553750    0.11448224 C
   0.72049764    0.10765257    0.11357114 C
   0.83214691    0.99806340    0.11278615 C
   0.88815949    0.11005692    0.11307079 C
   1.00016342    0.16718763    0.11312953 C
   0.05516398    0.27903320    0.11238225 C
   0.16908953    0.17221144    0.11484933 C
   0.22408559    0.28420911    0.11713287 C
   0.33624889    0.17220819    0.11448241 C
   0.39323028    0.28424720    0.11664494 C
   0.50023603    0.16692409    0.11205032 C
   0.55713733    0.27854276    0.11032399 C
   0.66577494    0.16425460    0.11279546 C
   0.72206029    0.27604384    0.11187229 C
   0.83184303    0.16433648    0.11341099 C
   0.88736572    0.27611003    0.11318388 C
   0.99814562    0.33273160    0.11223090 C
   0.05329605    0.44409784    0.11112627 C
   0.16626812    0.33766642    0.11290095 C
   0.33761384    0.34218505    0.12518608 C
   0.50478971    0.33741116    0.11115944 C
   0.66782684    0.33258285    0.10970726 C
   0.72402997    0.44402844    0.10789775 C
   0.83269169    0.33202657    0.11268899 C
   0.88843865    0.44369170    0.11243073 C
   0.99887794    0.49997065    0.11254464 C
   0.05471636    0.61170371    0.11246641 C
   0.16383326    0.49927682    0.10870263 C
   0.22043845    0.61251876    0.10857638 C
   0.66829336    0.49886519    0.10537065 C
   0.72520564    0.61274594    0.10527579 C
   0.83423458    0.49988966    0.11031884 C
   0.89013113    0.61171727    0.11022386 C
   1.00054878    0.66799627    0.11225725 C
   0.05645044    0.77963707    0.11247190 C
   0.16505952    0.66767403    0.11098667 C
   0.22124310    0.77903122    0.11203162 C
   0.38453258    0.77415184    0.11259013 C
   0.55131747    0.76959407    0.12479584 C
   0.72324902    0.77431801    0.11083687 C
   0.83576023    0.66759142    0.10770015 C
   0.89100638    0.77902556    0.10948930 C
   1.00179261    0.83558854    0.11170460 C
   0.05730659    0.94742743    0.11282257 C
   0.16703108    0.83559324    0.11301361 C
   0.22328919    0.94741076    0.11340102 C
   0.33197177    0.83270278    0.11215513 C
   0.38878150    0.94455298    0.11294505 C
   0.49581734    0.82762293    0.11674122 C
   0.55276826    0.93959034    0.11445940 C
   0.66484683    0.82747898    0.11623940 C
   0.71987994    0.93951256    0.11412337 C
   0.83444611    0.83313598    0.11010806 C
   0.88914459    0.94474660    0.11196359 C
   0.21660862    0.44547832    0.10767879 N
   0.38762203    0.44418807    0.14505292 N
   0.56196697    0.44466330    0.10560124 N
   0.32702743    0.66632352    0.10746259 N
   0.49920743    0.66764840    0.14481318 N
   0.67320085    0.66706224    0.10548585 N
