RuOs_NC-prerelax
1.0
  14.80200000    0.00000000    0.00000000
  -7.40100000   12.81890803    0.00000000
   0.00000000    0.00000000   15.00000000
Ru Os C N
1 1 62 6
direct
   0.52768785    0.55596742    0.13441777 Ru
   0.36306183    0.55588729    0.13660999 Os
   1.00018428    1.00064297    0.11249305 C
   0.05554782    0.11201809    0.11296712 C
   0.16820300    1.00311175    0.11263441 C
   0.22389120    0.11446683    0.11352820 C
   0.33388597    1.00126539    0.11253030 C
   0.38988222    0.11275674    0.11279470 C
   0.49938125    0.99974385    0.11278035 C
   0.55540905    0.11110635    0.11247256 C
   0.66529556    0.99729077    0.11323413 C
   0.72096858    0.10860533    0.11252973 C
   0.83301660    0.99895474    0.11262573 C
   0.88848086    0.11040826    0.11252814 C
   0.99974255    0.16666581    0.11299462 C
   0.05464507    0.27841190    0.11374696 C
   0.16722234    0.16943738    0.11396708 C
   0.22144144    0.28029684    0.11701649 C
   0.33566966    0.17017273    0.11381649 C
   0.39224011    0.28130737    0.11644454 C
   0.50038880    0.16747524    0.11277473 C
   0.55714402    0.27915762    0.11297288 C
   0.66616668    0.16502632    0.11253819 C
   0.72225553    0.27635953    0.11239066 C
   0.83208587    0.16478312    0.11260500 C
   0.88739878    0.27618657    0.11260449 C
   0.99789701    0.33241117    0.11314042 C
   0.05338609    0.44359128    0.11313810 C
   0.16470956    0.33510791    0.11616585 C
   0.33429696    0.33610004    0.12151043 C
   0.50394961    0.33649155    0.11480654 C
   0.66807546    0.33265364    0.11247020 C
   0.72475281    0.44384266    0.11210114 C
   0.83291242    0.33223443    0.11243462 C
   0.88904238    0.44373200    0.11220876 C
   0.99931872    0.49992690    0.11244388 C
   0.05523672    0.61173706    0.11240737 C
   0.16358265    0.49896011    0.11445535 C
   0.22046522    0.61268558    0.11441423 C
   0.67016792    0.49912231    0.11206477 C
   0.72694619    0.61264734    0.11195699 C
   0.83513834    0.50000772    0.11194913 C
   0.89099508    0.61169001    0.11191663 C
   1.00116054    0.66794810    0.11213896 C
   0.05652640    0.77945620    0.11233752 C
   0.16564975    0.66805694    0.11305640 C
   0.22133194    0.77925601    0.11299307 C
   0.38548775    0.77658675    0.11588455 C
   0.55412925    0.77575248    0.12091280 C
   0.72335714    0.77526952    0.11444201 C
   0.83679863    0.66788562    0.11199631 C
   0.89131141    0.77906241    0.11231343 C
   1.00175317    0.83535091    0.11228776 C
   0.05699013    0.94669674    0.11253742 C
   0.16705029    0.83549230    0.11250805 C
   0.22311520    0.94690231    0.11260055 C
   0.33208369    0.83323750    0.11350982 C
   0.38891416    0.94501558    0.11282422 C
   0.49702148    0.83149304    0.11656251 C
   0.55365770    0.94237130    0.11361918 C
   0.66686315    0.83048205    0.11599772 C
   0.72141457    0.94160386    0.11347497 C
   0.83387115    0.83255624    0.11273622 C
   0.88879506    0.94422485    0.11262838 C
   0.21573522    0.44494639    0.11890779 N
   0.38477617    0.43837550    0.13265824 N
   0.56378583    0.44610857    0.11484087 N
   0.32667053    0.66672531    0.11879478 N
   0.50234427    0.67344480    0.13191674 N
   0.67357531    0.66568080    0.11448703 N
