VW_NC-prerelax
1.0
  14.80200000    0.00000000    0.00000000
  -7.40100000   12.81890803    0.00000000
   0.00000000    0.00000000   15.00000000
V W C N
1 1 62 6
direct
   0.53780312    0.55594877    0.13698166 V
   0.35769913    0.55623413    0.15486293 W
   1.00058131    1.00091038    0.11310930 C
   0.05624525    0.11246080    0.11303028 C
   0.16793006    1.00245890    0.11318420 C
   0.22372699    0.11415157    0.11309060 C
   0.33377600    1.00124207    0.11312720 C
   0.38963838    0.11282202    0.11301419 C
   0.49961939    0.99924112    0.11299995 C
   0.55550409    0.11080195    0.11315701 C
   0.66545416    0.99754964    0.11304567 C
   0.72137992    0.10927406    0.11321588 C
   0.83273725    0.99889327    0.11296126 C
   0.88843423    0.11045085    0.11310584 C
   0.99979033    0.16655242    0.11308209 C
   0.05458894    0.27808084    0.11317694 C
   0.16806503    0.16998867    0.11304124 C
   0.22305852    0.28148442    0.11433022 C
   0.33521667    0.17015349    0.11295623 C
   0.39183853    0.28189044    0.11386065 C
   0.50022579    0.16705254    0.11308299 C
   0.55710015    0.27867590    0.11292436 C
   0.66633827    0.16550095    0.11326177 C
   0.72241067    0.27699768    0.11316406 C
   0.83261192    0.16547975    0.11323360 C
   0.88808823    0.27705527    0.11315801 C
   0.99893957    0.33338781    0.11329778 C
   0.05480069    0.44463900    0.11355412 C
   0.16511902    0.33491162    0.11401826 C
   0.33611592    0.33877199    0.11709658 C
   0.50346501    0.33598089    0.11331569 C
   0.66791236    0.33337430    0.11307489 C
   0.72322576    0.44465421    0.11303983 C
   0.83315017    0.33288346    0.11319555 C
   0.88869423    0.44401622    0.11303616 C
   0.99962295    0.50013154    0.11321865 C
   0.05528342    0.61148817    0.11321233 C
   0.16641851    0.49935301    0.11630621 C
   0.22295671    0.61245789    0.11581431 C
   0.66656459    0.49922070    0.11443723 C
   0.72322159    0.61244597    0.11430529 C
   0.83393929    0.50014599    0.11308578 C
   0.88961401    0.61145557    0.11309453 C
   1.00048965    0.66762405    0.11305823 C
   0.05608189    0.77880446    0.11322287 C
   0.16596043    0.66708686    0.11326846 C
   0.22133866    0.77834551    0.11306073 C
   0.38612061    0.77684247    0.11291731 C
   0.55326186    0.77303581    0.11608925 C
   0.72335679    0.77578607    0.11285612 C
   0.83441335    0.66696014    0.11295863 C
   0.89036484    0.77827351    0.11300689 C
   1.00123767    0.83468567    0.11317560 C
   0.05668169    0.94618916    0.11323500 C
   0.16682908    0.83467558    0.11315691 C
   0.22292491    0.94624463    0.11322977 C
   0.33232414    0.83358270    0.11279056 C
   0.38906142    0.94513455    0.11301134 C
   0.49744528    0.83023723    0.11349245 C
   0.55394975    0.94170063    0.11283357 C
   0.66586482    0.82993924    0.11331376 C
   0.72095585    0.94157446    0.11279588 C
   0.83426638    0.83298438    0.11276641 C
   0.88906746    0.94464747    0.11301039 C
   0.21611143    0.44207581    0.11648216 N
   0.38745127    0.44320059    0.12794558 N
   0.55909591    0.44252332    0.11432122 N
   0.32997968    0.66966830    0.11466978 N
   0.50038592    0.66870899    0.12681140 N
   0.67241311    0.66922814    0.11382837 N
