MnFe_NC-prerelax
1.0
  14.80200000    0.00000000    0.00000000
  -7.40100000   12.81890803    0.00000000
   0.00000000    0.00000000   15.00000000
Mn Fe C N
1 1 62 6
direct
   0.52560178    0.55584409    0.12444193 Mn
   0.36615846    0.55607449    0.12301642 Fe
   1.00050279    1.00106288    0.11294880 C
   0.05649120    0.11308495    0.11379502 C
   0.16841531    1.00352378    0.11288440 C
   0.22441351    0.11563069    0.11429241 C
   0.33385372    1.00122194    0.11304513 C
   0.38987613    0.11334180    0.11352895 C
   0.49920900    0.99863082    0.11367600 C
   0.55524685    0.11063587    0.11293136 C
   0.66467943    0.99614081    0.11411139 C
   0.72076860    0.10819222    0.11282692 C
   0.83248902    0.99843495    0.11344166 C
   0.88858660    0.11052599    0.11305483 C
   1.00053141    0.16740134    0.11374165 C
   0.05592123    0.27955436    0.11469095 C
   0.16841642    0.17117828    0.11499899 C
   0.22324502    0.28309020    0.11751010 C
   0.33598036    0.17155156    0.11475322 C
   0.39307240    0.28367746    0.11694274 C
   0.50018504    0.16750142    0.11332646 C
   0.55697941    0.27954312    0.11367373 C
   0.66593446    0.16474658    0.11263929 C
   0.72216152    0.27641886    0.11234332 C
   0.83216940    0.16472812    0.11274404 C
   0.88775196    0.27641966    0.11263084 C
   0.99871794    0.33287770    0.11372711 C
   0.05432633    0.44412523    0.11410749 C
   0.16716855    0.33809070    0.11703909 C
   0.33669313    0.34124260    0.12012844 C
   0.50412344    0.33779658    0.11553584 C
   0.66780072    0.33293205    0.11287041 C
   0.72387115    0.44417629    0.11289075 C
   0.83301153    0.33235853    0.11238348 C
   0.88891239    0.44377521    0.11243885 C
   0.99962805    0.50005218    0.11304022 C
   0.05536298    0.61153722    0.11300797 C
   0.16503887    0.49946290    0.11617084 C
   0.22143531    0.61227630    0.11614690 C
   0.66847042    0.49944548    0.11382546 C
   0.72488778    0.61227659    0.11378933 C
   0.83457135    0.50003418    0.11246578 C
   0.89032682    0.61154378    0.11244092 C
   1.00091729    0.66779721    0.11238727 C
   0.05645297    0.77924795    0.11232168 C
   0.16600294    0.66752833    0.11403911 C
   0.22162722    0.77879470    0.11362306 C
   0.38495544    0.77369799    0.11686166 C
   0.55144838    0.77061312    0.11974795 C
   0.72226808    0.77397830    0.11535307 C
   0.83553957    0.66746804    0.11283268 C
   0.89074567    0.77872782    0.11278850 C
   1.00159681    0.83522171    0.11228274 C
   0.05704792    0.94693748    0.11263677 C
   0.16711671    0.83523005    0.11256567 C
   0.22324260    0.94697468    0.11273646 C
   0.33216957    0.83217762    0.11454357 C
   0.38892132    0.94433584    0.11362948 C
   0.49605979    0.82868958    0.11722640 C
   0.55310130    0.94056101    0.11477762 C
   0.66537991    0.82816456    0.11664119 C
   0.72038625    0.94026017    0.11454352 C
   0.83335245    0.83217113    0.11355761 C
   0.88860335    0.94422714    0.11325501 C
   0.21965694    0.44788862    0.11862839 N
   0.38719544    0.44535217    0.12509684 N
   0.56253448    0.44698632    0.11564700 N
   0.32766260    0.66392672    0.11856594 N
   0.49792560    0.66653013    0.12471264 N
   0.67144159    0.66478184    0.11556871 N
