MnCd_NC-prerelax
1.0
  14.80200000    0.00000000    0.00000000
  -7.40100000   12.81890803    0.00000000
   0.00000000    0.00000000   15.00000000
Mn Cd C N
1 1 62 6
direct
   0.52550662    0.55568737    0.11010542 Mn
   0.35874146    0.55691584    0.20152696 Cd
   1.00113850    1.00182026    0.11306645 C
   0.05705101    0.11388106    0.11319207 C
   0.16877421    1.00424869    0.11322005 C
   0.22480143    0.11622723    0.11360997 C
   0.33403633    1.00145228    0.11304064 C
   0.39023457    0.11335455    0.11323594 C
   0.49901700    0.99778998    0.11295583 C
   0.55520489    0.10988533    0.11311197 C
   0.66438851    0.99539974    0.11334661 C
   0.72034280    0.10743256    0.11321402 C
   0.83267186    0.99831432    0.11311876 C
   0.88835731    0.11022619    0.11309680 C
   1.00024893    0.16739116    0.11316930 C
   0.05487544    0.27896518    0.11297039 C
   0.16941093    0.17281858    0.11381856 C
   0.22432410    0.28437795    0.11549397 C
   0.33641756    0.17161529    0.11372670 C
   0.39352079    0.28309908    0.11512541 C
   0.50043308    0.16707485    0.11328433 C
   0.55736742    0.27910201    0.11349979 C
   0.66577220    0.16414658    0.11322336 C
   0.72212735    0.27599460    0.11326231 C
   0.83177104    0.16417170    0.11325201 C
   0.88722763    0.27596083    0.11314915 C
   0.99804862    0.33258948    0.11265780 C
   0.05353480    0.44408676    0.11165819 C
   0.16627579    0.33855258    0.11358339 C
   0.33895670    0.34296983    0.11856472 C
   0.50450599    0.33730403    0.11415643 C
   0.66806428    0.33261976    0.11335886 C
   0.72417720    0.44402049    0.11356284 C
   0.83272436    0.33199616    0.11318592 C
   0.88867345    0.44366133    0.11307504 C
   0.99909505    0.49996047    0.11236390 C
   0.05504619    0.61184742    0.11230647 C
   0.16420140    0.49849024    0.10965089 C
   0.22148083    0.61307642    0.10919027 C
   0.66886571    0.49927467    0.11383106 C
   0.72540250    0.61238513    0.11385831 C
   0.83459526    0.50001184    0.11332105 C
   0.89050989    0.61184051    0.11335158 C
   1.00094597    0.66817730    0.11307437 C
   0.05663698    0.77982291    0.11317242 C
   0.16532815    0.66758619    0.11127363 C
   0.22134845    0.77908482    0.11220262 C
   0.38356862    0.77313274    0.11235327 C
   0.55182274    0.76879052    0.11715842 C
   0.72292255    0.77428267    0.11394024 C
   0.83600307    0.66773856    0.11359486 C
   0.89125394    0.77913372    0.11336210 C
   1.00197580    0.83577953    0.11323447 C
   0.05746705    0.94758402    0.11316051 C
   0.16719079    0.83577381    0.11301359 C
   0.22351598    0.94753719    0.11318543 C
   0.33177408    0.83269309    0.11227848 C
   0.38872967    0.94425982    0.11285139 C
   0.49576755    0.82733882    0.11429270 C
   0.55248411    0.93897446    0.11326748 C
   0.66622235    0.82857661    0.11446693 C
   0.72060200    0.94000999    0.11339865 C
   0.83400356    0.83256286    0.11340760 C
   0.88913152    0.94459677    0.11315247 C
   0.21616395    0.44551128    0.11263821 N
   0.39050690    0.44505292    0.12628487 N
   0.56324121    0.44687777    0.11338874 N
   0.32646063    0.66613637    0.11120749 N
   0.50124727    0.66668954    0.12425307 N
   0.67210406    0.66468534    0.11346251 N
