TiV_NC-prerelax
1.0
  14.80200000    0.00000000    0.00000000
  -7.40100000   12.81890803    0.00000000
   0.00000000    0.00000000   15.00000000
Ti V C N
1 1 62 6
direct
   0.53105447    0.55595853    0.15627148 Ti
   0.34879200    0.55546135    0.13781177 V
   1.00112244    1.00143322    0.11293133 C
   0.05679513    0.11315712    0.11315325 C
   0.16909719    1.00406490    0.11308073 C
   0.22511821    0.11617831    0.11353821 C
   0.33444876    1.00230333    0.11285165 C
   0.39056138    0.11425054    0.11294862 C
   0.49961373    0.99859456    0.11296505 C
   0.55570322    0.11039198    0.11294464 C
   0.66475023    0.99546345    0.11333637 C
   0.72090666    0.10767591    0.11304447 C
   0.83202152    0.99740782    0.11279641 C
   0.88784519    0.10938237    0.11288725 C
   0.99961951    0.16635432    0.11312693 C
   0.05423014    0.27800961    0.11361785 C
   0.16914733    0.17150339    0.11386249 C
   0.22413098    0.28327865    0.11606777 C
   0.33672703    0.17253081    0.11363063 C
   0.39357637    0.28472299    0.11506165 C
   0.50082114    0.16756407    0.11294190 C
   0.55758299    0.27934275    0.11242337 C
   0.66620642    0.16437802    0.11311201 C
   0.72243290    0.27614662    0.11302367 C
   0.83205628    0.16422613    0.11299614 C
   0.88754060    0.27615067    0.11292652 C
   0.99826686    0.33278437    0.11330951 C
   0.05422152    0.44436830    0.11384174 C
   0.16510992    0.33571969    0.11535333 C
   0.33753202    0.34200897    0.11955385 C
   0.50497655    0.33794018    0.11258372 C
   0.66829591    0.33283086    0.11258490 C
   0.72451392    0.44415236    0.11203729 C
   0.83295287    0.33213207    0.11300287 C
   0.88901126    0.44381665    0.11290500 C
   0.99955479    0.50006723    0.11312568 C
   0.05550281    0.61188979    0.11309669 C
   0.16508403    0.49918169    0.11665589 C
   0.22186053    0.61258548    0.11636574 C
   0.66911272    0.49939560    0.11081764 C
   0.72557215    0.61234582    0.11069039 C
   0.83492779    0.50015029    0.11277273 C
   0.89078582    0.61186969    0.11276927 C
   1.00123246    0.66819038    0.11289211 C
   0.05682352    0.77983616    0.11300342 C
   0.16586400    0.66751260    0.11363131 C
   0.22145830    0.77904878    0.11301862 C
   0.38520498    0.77576174    0.11461437 C
   0.55117699    0.76950768    0.11899603 C
   0.72276695    0.77364536    0.11207228 C
   0.83628967    0.66776439    0.11192665 C
   0.89135359    0.77906627    0.11241931 C
   1.00221427    0.83578414    0.11298949 C
   0.05768534    0.94746130    0.11309611 C
   0.16738289    0.83573315    0.11284771 C
   0.22380963    0.94757116    0.11295933 C
   0.33214515    0.83364410    0.11313919 C
   0.38927943    0.94535843    0.11289067 C
   0.49659971    0.82831460    0.11541791 C
   0.55350291    0.94018116    0.11349903 C
   0.66452550    0.82677559    0.11454695 C
   0.71991196    0.93903501    0.11331716 C
   0.83400409    0.83238553    0.11210681 C
   0.88900570    0.94418027    0.11276819 C
   0.21528677    0.44223200    0.11691389 N
   0.38856900    0.44703456    0.12884227 N
   0.56245182    0.44561615    0.10977250 N
   0.32893221    0.66914656    0.11625941 N
   0.49710342    0.66450403    0.12850760 N
   0.67257649    0.66596842    0.10930330 N
