NbAg_NC-prerelax
1.0
  14.80200000    0.00000000    0.00000000
  -7.40100000   12.81890803    0.00000000
   0.00000000    0.00000000   15.00000000
Nb Ag C N
1 1 62 6
direct
   0.52370154    0.55603368    0.15686958 Nb
   0.33909364    0.55557382    0.22169841 Ag
   1.00114958    1.00142360    0.11265241 C
   0.05693781    0.11323240    0.11290567 C
   0.16873515    1.00354059    0.11289559 C
   0.22478184    0.11534109    0.11314159 C
   0.33415603    1.00095541    0.11225435 C
   0.39022078    0.11278767    0.11216759 C
   0.49958479    0.99848470    0.11233014 C
   0.55559904    0.11030486    0.11235382 C
   0.66530585    0.99640365    0.11261042 C
   0.72106943    0.10820578    0.11267764 C
   0.83328403    0.99894271    0.11212576 C
   0.88904970    0.11075535    0.11250300 C
   1.00077850    0.16757745    0.11275545 C
   0.05539924    0.27927074    0.11268473 C
   0.16891946    0.17141882    0.11331502 C
   0.22311967    0.28272375    0.11470440 C
   0.33644242    0.17086974    0.11259354 C
   0.39256069    0.28212519    0.11319369 C
   0.50059341    0.16696723    0.11211522 C
   0.55725650    0.27872894    0.11132439 C
   0.66630515    0.16469051    0.11264903 C
   0.72250095    0.27635980    0.11248767 C
   0.83248300    0.16479607    0.11266628 C
   0.88786377    0.27641686    0.11240789 C
   0.99873688    0.33296441    0.11191637 C
   0.05470155    0.44438493    0.11063354 C
   0.16659473    0.33874322    0.11411327 C
   0.33568444    0.33890900    0.11792811 C
   0.50422115    0.33660004    0.11075688 C
   0.66816108    0.33276507    0.11161062 C
   0.72445918    0.44401435    0.11092234 C
   0.83322358    0.33233555    0.11235443 C
   0.88925261    0.44381272    0.11188143 C
   0.99989394    0.50001615    0.11093938 C
   0.05575833    0.61172464    0.11080811 C
   0.16561050    0.49833594    0.11009318 C
   0.22315465    0.61335562    0.10996055 C
   0.66871575    0.49907519    0.10890659 C
   0.72552757    0.61267730    0.10874268 C
   0.83490787    0.50002943    0.11164846 C
   0.89077472    0.61174164    0.11155963 C
   1.00133375    0.66794617    0.11166712 C
   0.05677752    0.77940715    0.11209169 C
   0.16620348    0.66734861    0.11035197 C
   0.22165672    0.77875352    0.11144459 C
   0.38371996    0.77291473    0.11363735 C
   0.55263896    0.77282736    0.11712693 C
   0.72350456    0.77517532    0.11024843 C
   0.83633719    0.66774623    0.11071226 C
   0.89127734    0.77900121    0.11140318 C
   1.00202258    0.83538976    0.11236429 C
   0.05749235    0.94705658    0.11279807 C
   0.16733363    0.83530446    0.11205466 C
   0.22356164    0.94692548    0.11251229 C
   0.33201135    0.83242752    0.11212392 C
   0.38907385    0.94411541    0.11219578 C
   0.49625059    0.82898572    0.11397520 C
   0.55337762    0.94031590    0.11260440 C
   0.66629567    0.82962126    0.11253370 C
   0.72142983    0.94086980    0.11214648 C
   0.83440873    0.83303743    0.11108743 C
   0.88948901    0.94477465    0.11213115 C
   0.21758700    0.44553680    0.11561596 N
   0.38833933    0.44108086    0.12964266 N
   0.56312054    0.44526128    0.10678986 N
   0.32791350    0.66606464    0.11535716 N
   0.50316555    0.67066283    0.12888509 N
   0.67374727    0.66646372    0.10620951 N
