CrPt_NC-prerelax
1.0
  14.80200000    0.00000000    0.00000000
  -7.40100000   12.81890803    0.00000000
   0.00000000    0.00000000   15.00000000
Cr Pt C N
1 1 62 6
direct
   0.53354887    0.55590424    0.13125337 Cr
   0.36162222    0.55572372    0.13045871 Pt
   1.00130772    1.00196654    0.11280634 C
   0.05695342    0.11370078    0.11356193 C
   0.16858022    1.00387897    0.11273709 C
   0.22453466    0.11550716    0.11385798 C
   0.33387548    1.00085146    0.11256180 C
   0.39000568    0.11232632    0.11279030 C
   0.49910774    0.99806779    0.11333244 C
   0.55516553    0.10976655    0.11273746 C
   0.66493616    0.99629443    0.11360406 C
   0.72062548    0.10784648    0.11266232 C
   0.83360629    0.99944175    0.11269029 C
   0.88891851    0.11087135    0.11263161 C
   1.00056768    0.16769898    0.11343335 C
   0.05524996    0.27921554    0.11436326 C
   0.16885089    0.17169852    0.11468211 C
   0.22350448    0.28304931    0.11790016 C
   0.33606970    0.17029251    0.11384036 C
   0.39280704    0.28116003    0.11611178 C
   0.50033603    0.16639139    0.11283204 C
   0.55713985    0.27809222    0.11289872 C
   0.66577298    0.16415402    0.11270960 C
   0.72187805    0.27577336    0.11250565 C
   0.83186981    0.16447069    0.11252852 C
   0.88706423    0.27591762    0.11242090 C
   0.99744442    0.33237568    0.11328853 C
   0.05100999    0.44361926    0.11323878 C
   0.16603613    0.33694242    0.11739025 C
   0.33694385    0.33870400    0.12160980 C
   0.50418284    0.33569662    0.11421340 C
   0.66783865    0.33231645    0.11268712 C
   0.72392505    0.44375754    0.11245403 C
   0.83226865    0.33180469    0.11232326 C
   0.88747941    0.44347728    0.11210605 C
   0.99724786    0.49988791    0.11220433 C
   0.05321814    0.61182617    0.11215093 C
   0.16041503    0.49931865    0.11498869 C
   0.21704767    0.61252562    0.11479578 C
   0.66873097    0.49893209    0.11232731 C
   0.72564749    0.61284680    0.11217789 C
   0.83381474    0.49984481    0.11224380 C
   0.88978895    0.61187480    0.11221484 C
   0.99981542    0.66819925    0.11203393 C
   0.05630096    0.77986735    0.11221076 C
   0.16327088    0.66817128    0.11303947 C
   0.22086839    0.77938155    0.11302673 C
   0.38501085    0.77475976    0.11689568 C
   0.55406971    0.77296438    0.12105950 C
   0.72441321    0.77612689    0.11378649 C
   0.83599481    0.66796532    0.11233385 C
   0.89139024    0.77937823    0.11253601 C
   1.00193528    0.83588444    0.11241714 C
   0.05744227    0.94750979    0.11272414 C
   0.16696787    0.83580910    0.11228148 C
   0.22321940    0.94725938    0.11247285 C
   0.33189041    0.83242941    0.11400967 C
   0.38872417    0.94401214    0.11319525 C
   0.49633597    0.82870382    0.11736090 C
   0.55306221    0.94010283    0.11432578 C
   0.66749915    0.83059489    0.11565911 C
   0.72167717    0.94146291    0.11354641 C
   0.83494072    0.83363995    0.11267479 C
   0.88985705    0.94536823    0.11274939 C
   0.21329975    0.44654645    0.11974014 N
   0.39267086    0.44048926    0.13360617 N
   0.56321987    0.44423988    0.11237224 N
   0.32274268    0.66506927    0.11920493 N
   0.50794628    0.67113042    0.13303120 N
   0.67483588    0.66755131    0.11194898 N
