ScV_NC-prerelax
1.0
  14.80200000    0.00000000    0.00000000
  -7.40100000   12.81890803    0.00000000
   0.00000000    0.00000000   15.00000000
Sc V C N
1 1 62 6
direct
   0.53701700    0.55579905    0.17909856 Sc
   0.35821810    0.55583099    0.13174196 V
   1.00093091    1.00155868    0.11273275 C
   0.05677309    0.11345265    0.11353532 C
   0.16872435    1.00407157    0.11338435 C
   0.22480509    0.11618168    0.11427315 C
   0.33397214    1.00190928    0.11316034 C
   0.39004296    0.11383843    0.11304038 C
   0.49912235    0.99834394    0.11330941 C
   0.55524129    0.11017744    0.11265917 C
   0.66451675    0.99555652    0.11393450 C
   0.72066999    0.10768081    0.11324785 C
   0.83210362    0.99793539    0.11287704 C
   0.88807214    0.10987973    0.11317978 C
   0.99996530    0.16692279    0.11353332 C
   0.05491333    0.27878868    0.11375082 C
   0.16885108    0.17171658    0.11447753 C
   0.22386632    0.28353899    0.11634783 C
   0.33641677    0.17231402    0.11415567 C
   0.39329802    0.28444623    0.11588638 C
   0.50034032    0.16727997    0.11246495 C
   0.55724444    0.27895081    0.11137345 C
   0.66586356    0.16427340    0.11271126 C
   0.72217185    0.27605435    0.11198264 C
   0.83194150    0.16436539    0.11330593 C
   0.88745094    0.27620818    0.11343592 C
   0.99825382    0.33289274    0.11366590 C
   0.05383700    0.44419087    0.11372085 C
   0.16576495    0.33672258    0.11459989 C
   0.33715932    0.34159754    0.12103855 C
   0.50497524    0.33793856    0.11243772 C
   0.66796933    0.33269717    0.11065816 C
   0.72411585    0.44401670    0.10925916 C
   0.83282151    0.33207634    0.11280464 C
   0.88866663    0.44365032    0.11272363 C
   0.99926057    0.49994825    0.11368392 C
   0.05512386    0.61178687    0.11362494 C
   0.16473894    0.49935750    0.11337690 C
   0.22124200    0.61238803    0.11327094 C
   0.66840793    0.49895082    0.10792799 C
   0.72522401    0.61258824    0.10791248 C
   0.83442164    0.49990524    0.11086358 C
   0.89034682    0.61171599    0.11078434 C
   1.00079009    0.66803625    0.11258084 C
   0.05648268    0.77966047    0.11262679 C
   0.16550025    0.66757204    0.11351145 C
   0.22122483    0.77893611    0.11343316 C
   0.38500883    0.77510028    0.11416008 C
   0.55140796    0.77008259    0.12046761 C
   0.72289006    0.77363452    0.11219150 C
   0.83594294    0.66761000    0.10909344 C
   0.89111077    0.77895497    0.11045826 C
   1.00193846    0.83564170    0.11183856 C
   0.05732541    0.94741507    0.11274014 C
   0.16703441    0.83554624    0.11326170 C
   0.22335443    0.94742274    0.11328115 C
   0.33196143    0.83305845    0.11347903 C
   0.38888077    0.94491799    0.11333769 C
   0.49625230    0.82832147    0.11587779 C
   0.55302081    0.94003252    0.11410933 C
   0.66476996    0.82717914    0.11540090 C
   0.71997473    0.93941241    0.11375935 C
   0.83422376    0.83274729    0.11116220 C
   0.88894123    0.94446140    0.11236241 C
   0.21654604    0.44482015    0.11306159 N
   0.38737345    0.44616790    0.13316603 N
   0.56232267    0.44545324    0.11003957 N
   0.32770419    0.66706672    0.11259058 N
   0.49698329    0.66570156    0.13262128 N
   0.67251160    0.66597746    0.11000373 N
