ScW_NC-prerelax
1.0
  14.80200000    0.00000000    0.00000000
  -7.40100000   12.81890803    0.00000000
   0.00000000    0.00000000   15.00000000
Sc W C N
1 1 62 6
direct
   0.53962538    0.55610159    0.18200456 Sc
   0.35067135    0.55591501    0.15536729 W
   1.00043836    1.00068972    0.11209422 C
   0.05616506    0.11235343    0.11249756 C
   0.16846024    1.00312459    0.11323563 C
   0.22433734    0.11515077    0.11405506 C
   0.33404418    1.00209250    0.11281781 C
   0.38996716    0.11398162    0.11288284 C
   0.49964457    0.99939198    0.11217154 C
   0.55557861    0.11102854    0.11201860 C
   0.66507413    0.99652997    0.11356265 C
   0.72120640    0.10857243    0.11302074 C
   0.83196621    0.99781421    0.11263333 C
   0.88785096    0.10967101    0.11275472 C
   0.99938426    0.16603127    0.11248897 C
   0.05419277    0.27748681    0.11191371 C
   0.16832817    0.17035432    0.11360139 C
   0.22330875    0.28184562    0.11524920 C
   0.33598080    0.17191086    0.11418169 C
   0.39297064    0.28414018    0.11667429 C
   0.50040578    0.16778558    0.11208133 C
   0.55715104    0.27930060    0.11106478 C
   0.66626873    0.16510109    0.11240390 C
   0.72236286    0.27666943    0.11185259 C
   0.83239061    0.16495364    0.11315130 C
   0.88797032    0.27674532    0.11325668 C
   0.99886800    0.33309151    0.11269261 C
   0.05499119    0.44452644    0.11285496 C
   0.16469785    0.33429946    0.11109257 C
   0.33647503    0.34050639    0.12294363 C
   0.50475758    0.33808142    0.11276720 C
   0.66788793    0.33306475    0.11020383 C
   0.72414264    0.44429273    0.10854104 C
   0.83313154    0.33260189    0.11284850 C
   0.88914607    0.44387698    0.11269417 C
   1.00005266    0.49999791    0.11359790 C
   0.05583574    0.61165078    0.11350044 C
   0.16662238    0.49913130    0.11271520 C
   0.22338781    0.61264082    0.11266867 C
   0.66826484    0.49907294    0.10711539 C
   0.72494665    0.61260027    0.10694630 C
   0.83470183    0.50004673    0.11051899 C
   0.89035759    0.61152625    0.11045634 C
   1.00101278    0.66774236    0.11251639 C
   0.05638577    0.77901442    0.11263611 C
   0.16628871    0.66721321    0.11265329 C
   0.22160491    0.77864481    0.11239643 C
   0.38623894    0.77738720    0.11077008 C
   0.55181138    0.77129207    0.12234032 C
   0.72254119    0.77365405    0.11238242 C
   0.83559900    0.66735705    0.10842080 C
   0.89073661    0.77860766    0.11005595 C
   1.00162851    0.83503797    0.11170672 C
   0.05702502    0.94658766    0.11242993 C
   0.16708759    0.83496537    0.11306436 C
   0.22329598    0.94679668    0.11320688 C
   0.33252520    0.83422518    0.11152460 C
   0.38921696    0.94570920    0.11223385 C
   0.49733469    0.82995846    0.11460945 C
   0.55382056    0.94135479    0.11302271 C
   0.66472044    0.82762884    0.11619799 C
   0.72001156    0.93978700    0.11373186 C
   0.83372185    0.83233760    0.11086338 C
   0.88850157    0.94388883    0.11193860 C
   0.21564514    0.44114811    0.10705320 N
   0.38481629    0.44398576    0.14059635 N
   0.56171910    0.44567999    0.11019940 N
   0.33034507    0.67062352    0.10689937 N
   0.49673054    0.66793559    0.14015318 N
   0.67196268    0.66611603    0.10977230 N
