MnHf_NC-prerelax
1.0
  14.80200000    0.00000000    0.00000000
  -7.40100000   12.81890803    0.00000000
   0.00000000    0.00000000   15.00000000
Mn Hf C N
1 1 62 6
direct
   0.53167731    0.55591928    0.10888858 Mn
   0.35575926    0.55607332    0.17920335 Hf
   1.00103852    1.00156444    0.11305717 C
   0.05705181    0.11362831    0.11333016 C
   0.16871372    1.00396719    0.11315816 C
   0.22478878    0.11613790    0.11395758 C
   0.33404448    1.00160146    0.11286586 C
   0.39011075    0.11355222    0.11325316 C
   0.49927276    0.99812272    0.11305734 C
   0.55531533    0.11014966    0.11297277 C
   0.66452256    0.99558274    0.11364021 C
   0.72060536    0.10773480    0.11303903 C
   0.83245938    0.99817995    0.11312753 C
   0.88833896    0.11010439    0.11292197 C
   1.00026465    0.16709761    0.11314540 C
   0.05518225    0.27880495    0.11297043 C
   0.16923510    0.17210148    0.11422799 C
   0.22467776    0.28426365    0.11620449 C
   0.33628812    0.17182751    0.11408184 C
   0.39340096    0.28397521    0.11577490 C
   0.50035588    0.16723446    0.11321911 C
   0.55721450    0.27928843    0.11348706 C
   0.66588924    0.16435411    0.11300617 C
   0.72212604    0.27608520    0.11302803 C
   0.83192810    0.16430184    0.11294313 C
   0.88742911    0.27606270    0.11277096 C
   0.99827166    0.33265834    0.11258035 C
   0.05316505    0.44392493    0.11196346 C
   0.16625039    0.33730911    0.11410634 C
   0.33833109    0.34194678    0.12003125 C
   0.50454723    0.33770081    0.11440667 C
   0.66792414    0.33272855    0.11325054 C
   0.72397953    0.44406138    0.11342105 C
   0.83275576    0.33202582    0.11293965 C
   0.88853222    0.44362990    0.11294923 C
   0.99891990    0.49992018    0.11248929 C
   0.05482199    0.61171579    0.11243300 C
   0.16381993    0.49935208    0.11159467 C
   0.22035576    0.61242296    0.11137700 C
   0.66866745    0.49940927    0.11347629 C
   0.72512447    0.61230545    0.11342279 C
   0.83438820    0.49993522    0.11324771 C
   0.89025863    0.61167986    0.11322619 C
   1.00070951    0.66798141    0.11287426 C
   0.05654805    0.77961364    0.11283753 C
   0.16507265    0.66778043    0.11175040 C
   0.22143647    0.77906231    0.11227264 C
   0.38479514    0.77442662    0.11343917 C
   0.55229069    0.76987522    0.11929977 C
   0.72276661    0.77403578    0.11411680 C
   0.83576879    0.66760582    0.11335616 C
   0.89108183    0.77895614    0.11316367 C
   1.00190195    0.83559369    0.11297427 C
   0.05740431    0.94735157    0.11305445 C
   0.16717080    0.83561000    0.11260638 C
   0.22343324    0.94738319    0.11289598 C
   0.33220477    0.83292849    0.11253074 C
   0.38900461    0.94463299    0.11286528 C
   0.49627257    0.82752611    0.11552756 C
   0.55298282    0.93965595    0.11378674 C
   0.66534396    0.82780499    0.11530612 C
   0.72037238    0.93992499    0.11375008 C
   0.83383846    0.83241804    0.11332456 C
   0.88900981    0.94447709    0.11313148 C
   0.21695378    0.44597707    0.11309401 N
   0.39068324    0.44705674    0.13125095 N
   0.56266363    0.44609666    0.11315839 N
   0.32689142    0.66578288    0.11249242 N
   0.49947258    0.66477277    0.13047213 N
   0.67246182    0.66565745    0.11299019 N
