NiZn_NC/O_TM2-prerelax
1.0
  14.80200005    0.00000000    0.00000000
  -7.40100002   12.81890807    0.00000000
   0.00000000    0.00000000   15.00000000
C N Ni Zn O
62 6 1 1 1
Selective dynamics
direct
   0.00178056    0.00279358    0.11406364 F F F C
   0.05736036    0.11461552    0.11711362 F F F C
   0.16994789    0.00619104    0.11470796 F F F C
   0.22579515    0.11811824    0.11897075 F F F C
   0.33449758    0.00267417    0.11518611 F F F C
   0.39064377    0.11487649    0.11563487 F F F C
   0.49865184    0.99708997    0.11678075 F F F C
   0.55491975    0.10896439    0.11378890 F F F C
   0.66355227   -0.00643397    0.11877378 F F F C
   0.71967684    0.10551676    0.11471207 F F F C
   0.83156840   -0.00314507    0.11576850 F F F C
   0.88764593    0.10903292    0.11544796 F F F C
  -0.00000828    0.16776682    0.11659688 F F F C
   0.05530184    0.27997226    0.11663655 F F F C
   0.16965426    0.17405741    0.11996494 F F F C
   0.22428933    0.28592119    0.12423308 F F F C
   0.33787115    0.17490332    0.11904189 F F F C
   0.39478359    0.28756067    0.12205386 F F F C
   0.50124361    0.16733109    0.11328837 F F F C
   0.55809259    0.27890066    0.11001699 F F F C
   0.66569036    0.16311191    0.11188066 F F F C
   0.72203275    0.27467833    0.10732866 F F F C
   0.83124010    0.16328734    0.11362698 F F F C
   0.88683972    0.27495413    0.11028854 F F F C
   0.99776476    0.33243683    0.11190794 F F F C
   0.05245474    0.44387320    0.10995343 F F F C
   0.16754387    0.34067817    0.12137268 F F F C
   0.33818093    0.34642336    0.13243844 F F F C
   0.50664168    0.33972303    0.11289832 F F F C
   0.66843006    0.33203670    0.10557460 F F F C
   0.72616462    0.44363966    0.10180299 F F F C
   0.83267250    0.33120953    0.10643909 F F F C
   0.88894667    0.44312951    0.10354937 F F F C
  -0.00116832    0.50015038    0.10543877 F F F C
   0.05451315    0.61157395    0.10550721 F F F C
   0.16170817    0.49918989    0.11524783 F F F C
   0.21833742    0.61252729    0.11548020 F F F C
   0.67120390    0.49818590    0.10131537 F F F C
   0.72885176    0.61361354    0.10094043 F F F C
   0.83600637    0.50007300    0.10104481 F F F C
   0.89177717    0.61172214    0.10088142 F F F C
   0.00166066    0.66860845    0.10341744 F F F C
   0.05726730    0.78053286    0.10623496 F F F C
   0.16439995    0.66787010    0.11028611 F F F C
   0.22113636    0.77929599    0.11222055 F F F C
   0.38267998    0.77096060    0.12169409 F F F C
   0.54760229    0.76524634    0.13252535 F F F C
   0.72273567    0.77205124    0.11212832 F F F C
   0.83834740    0.66817358    0.10136815 F F F C
   0.89221400    0.77977012    0.10500737 F F F C
   0.00313248    0.83709660    0.10693176 F F F C
   0.05836457    0.94862713    0.11178692 F F F C
   0.16770239    0.83678094    0.11032129 F F F C
   0.22378850    0.94844861    0.11349307 F F F C
   0.33115608    0.83170916    0.11680372 F F F C
   0.38811165    0.94394876    0.11637418 F F F C
   0.49422633    0.82578135    0.12440771 F F F C
   0.55150551    0.93764299    0.11979111 F F F C
   0.66300993    0.82408720    0.12160426 F F F C
   0.71876578    0.93673586    0.11883881 F F F C
   0.83503326    0.83289777    0.10954140 F F F C
   0.88974388    0.94445525    0.11341769 F F F C
   0.21739456    0.44913611    0.12212408 F F F N
   0.38693532    0.44742835    0.14912479 F F F N
   0.56662776    0.44631390    0.10657895 F F F N
   0.32405863    0.66248546    0.12254670 F F F N
   0.49543523    0.66427533    0.14944309 F F F N
   0.67608459    0.66549076    0.10557041 F F F N
   0.35594211    0.55580322    0.13775292 F F F Ni
   0.52819715    0.55585077    0.12753551 F F F Zn
   0.53073096    0.55588246    0.26396257 T T T O
