CoPd_NC-prerelax
1.0
  14.80200000    0.00000000    0.00000000
  -7.40100000   12.81890803    0.00000000
   0.00000000    0.00000000   15.00000000
Co Pd C N
1 1 62 6
direct
   0.52582727    0.55585309    0.12245216 Co
   0.36113397    0.55592073    0.13057659 Pd
   1.00107791    1.00160233    0.11293629 C
   0.05696838    0.11362222    0.11356660 C
   0.16881604    1.00405940    0.11278592 C
   0.22490156    0.11585917    0.11382311 C
   0.33410759    1.00115803    0.11265370 C
   0.39036016    0.11290544    0.11301340 C
   0.49923319    0.99810533    0.11338192 C
   0.55536397    0.11011803    0.11290103 C
   0.66487448    0.99582396    0.11361603 C
   0.72060395    0.10763710    0.11276585 C
   0.83327856    0.99880803    0.11295535 C
   0.88877127    0.11055464    0.11273757 C
   1.00049393    0.16745706    0.11342826 C
   0.05528628    0.27906160    0.11443438 C
   0.16923154    0.17203913    0.11467115 C
   0.22417984    0.28351337    0.11792113 C
   0.33661274    0.17094345    0.11394349 C
   0.39403317    0.28215378    0.11605127 C
   0.50061183    0.16721260    0.11311750 C
   0.55747007    0.27938173    0.11345176 C
   0.66585997    0.16422854    0.11285338 C
   0.72205259    0.27594638    0.11274765 C
   0.83188262    0.16430437    0.11264030 C
   0.88718392    0.27592826    0.11245567 C
   0.99769881    0.33233867    0.11324290 C
   0.05198376    0.44375542    0.11323192 C
   0.16646715    0.33721475    0.11764256 C
   0.33893417    0.34071406    0.12070948 C
   0.50493086    0.33787495    0.11477378 C
   0.66785375    0.33253679    0.11315905 C
   0.72362154    0.44384116    0.11318888 C
   0.83243715    0.33192620    0.11248194 C
   0.88776758    0.44357451    0.11227198 C
   0.99791324    0.49992429    0.11216560 C
   0.05385207    0.61180803    0.11212253 C
   0.16196490    0.49900548    0.11596736 C
   0.21879278    0.61271374    0.11574309 C
   0.66813909    0.49907321    0.11353697 C
   0.72495105    0.61268809    0.11346678 C
   0.83374943    0.49989729    0.11270625 C
   0.88973845    0.61185555    0.11268982 C
   1.00007985    0.66816787    0.11221253 C
   0.05639235    0.77980821    0.11239196 C
   0.16408795    0.66797713    0.11303691 C
   0.22121504    0.77939124    0.11298377 C
   0.38509599    0.77450691    0.11703822 C
   0.55404710    0.77101063    0.11976748 C
   0.72293594    0.77385347    0.11445337 C
   0.83566213    0.66790311    0.11312230 C
   0.89119349    0.77918295    0.11307973 C
   1.00196553    0.83577083    0.11268385 C
   0.05747746    0.94747951    0.11284127 C
   0.16713096    0.83580787    0.11230857 C
   0.22345615    0.94741463    0.11255199 C
   0.33207869    0.83265810    0.11407027 C
   0.38892336    0.94426303    0.11320784 C
   0.49650688    0.82821962    0.11726907 C
   0.55304651    0.93969794    0.11433494 C
   0.66773361    0.82956362    0.11554969 C
   0.72151508    0.94075630    0.11369694 C
   0.83397344    0.83234731    0.11331172 C
   0.88923359    0.94450054    0.11305444 C
   0.21372425    0.44575889    0.12089455 N
   0.39310583    0.44223226    0.12928062 N
   0.56314803    0.44803241    0.11445685 N
   0.32384733    0.66598664    0.12006540 N
   0.50677102    0.66950129    0.12774679 N
   0.67097988    0.66369776    0.11417658 N
