MoW_NC-prerelax
1.0
  14.80200000    0.00000000    0.00000000
  -7.40100000   12.81890803    0.00000000
   0.00000000    0.00000000   15.00000000
Mo W C N
1 1 62 6
direct
   0.54028203    0.55611600    0.15952287 Mo
   0.36163401    0.55595717    0.15571152 W
   1.00057490    1.00110685    0.11277748 C
   0.05631040    0.11263466    0.11289384 C
   0.16743531    1.00193706    0.11296053 C
   0.22331978    0.11355632    0.11302121 C
   0.33351282    1.00052307    0.11277924 C
   0.38927021    0.11192000    0.11255660 C
   0.49952959    0.99907102    0.11265501 C
   0.55531692    0.11059714    0.11273412 C
   0.66564294    0.99816920    0.11275641 C
   0.72137069    0.10978207    0.11290065 C
   0.83321138    0.99978441    0.11242732 C
   0.88884062    0.11117999    0.11283595 C
   1.00024550    0.16716954    0.11296684 C
   0.05518764    0.27878921    0.11318719 C
   0.16794464    0.16982279    0.11304702 C
   0.22294349    0.28135642    0.11419068 C
   0.33457741    0.16888618    0.11268941 C
   0.39104258    0.28030237    0.11318156 C
   0.49995149    0.16646603    0.11256777 C
   0.55668293    0.27799263    0.11211561 C
   0.66621712    0.16585507    0.11289766 C
   0.72225473    0.27733517    0.11289490 C
   0.83268020    0.16594754    0.11300975 C
   0.88812330    0.27737889    0.11320703 C
   0.99907240    0.33364479    0.11347252 C
   0.05494871    0.44472728    0.11381829 C
   0.16562531    0.33550603    0.11358802 C
   0.33574452    0.33724519    0.11687311 C
   0.50236693    0.33431035    0.11163101 C
   0.66757312    0.33357195    0.11266412 C
   0.72239130    0.44485702    0.11296128 C
   0.83307643    0.33316680    0.11319643 C
   0.88842173    0.44415927    0.11327861 C
   0.99951216    0.50024697    0.11363958 C
   0.05512019    0.61143904    0.11359452 C
   0.16656720    0.49939194    0.11527262 C
   0.22305928    0.61236139    0.11499483 C
   0.66478483    0.49908514    0.11453809 C
   0.72158387    0.61267391    0.11429363 C
   0.83332235    0.50019565    0.11330989 C
   0.88898092    0.61151055    0.11331055 C
   1.00012999    0.66754263    0.11324933 C
   0.05577141    0.77853945    0.11315568 C
   0.16609058    0.66700566    0.11356480 C
   0.22130741    0.77809462    0.11314838 C
   0.38597548    0.77615358    0.11258455 C
   0.55423792    0.77439244    0.11586933 C
   0.72396469    0.77746775    0.11095089 C
   0.83340804    0.66685909    0.11282477 C
   0.88988424    0.77814556    0.11252698 C
   1.00077266    0.83436569    0.11286384 C
   0.05619310    0.94583316    0.11290864 C
   0.16659697    0.83433040    0.11308710 C
   0.22258415    0.94576020    0.11295355 C
   0.33225651    0.83293036    0.11266016 C
   0.38894764    0.94453622    0.11268556 C
   0.49746692    0.83040958    0.11328263 C
   0.55401706    0.94192867    0.11258701 C
   0.66654289    0.83138169    0.11246652 C
   0.72152436    0.94279312    0.11232949 C
   0.83460018    0.83376862    0.11182800 C
   0.88935527    0.94526925    0.11245125 C
   0.21733256    0.44301217    0.11522313 N
   0.38875946    0.44130783    0.12963706 N
   0.55711447    0.44115210    0.11034017 N
   0.33023930    0.66872648    0.11451062 N
   0.50314045    0.67042765    0.12871806 N
   0.67187240    0.67056593    0.10923725 N
