NiZn_NC-prerelax
1.0
  14.80200000    0.00000000    0.00000000
  -7.40100000   12.81890803    0.00000000
   0.00000000    0.00000000   15.00000000
Ni Zn C N
1 1 62 6
direct
   0.52692939    0.55579057    0.11966122 Ni
   0.36135382    0.55580815    0.14338956 Zn
   1.00115140    1.00192666    0.11296761 C
   0.05715721    0.11407312    0.11383710 C
   0.16909493    1.00479092    0.11281199 C
   0.22522223    0.11684055    0.11421863 C
   0.33430713    1.00190425    0.11267899 C
   0.39064965    0.11385409    0.11315737 C
   0.49908477    0.99763816    0.11361795 C
   0.55523548    0.10980944    0.11291216 C
   0.66413226    0.99477611    0.11397862 C
   0.72010088    0.10687441    0.11273447 C
   0.83250970    0.99783759    0.11306793 C
   0.88813670    0.10980965    0.11272980 C
   1.00014916    0.16728665    0.11356501 C
   0.05480705    0.27893893    0.11435234 C
   0.16976700    0.17328770    0.11518436 C
   0.22477176    0.28489056    0.11796199 C
   0.33697367    0.17229000    0.11434201 C
   0.39434362    0.28382606    0.11617345 C
   0.50076724    0.16755003    0.11313714 C
   0.55765065    0.27982041    0.11346198 C
   0.66560175    0.16378394    0.11272299 C
   0.72191069    0.27567711    0.11259675 C
   0.83146277    0.16363357    0.11250229 C
   0.88684099    0.27552000    0.11232100 C
   0.99748956    0.33225013    0.11309391 C
   0.05228406    0.44380196    0.11292066 C
   0.16625588    0.33803073    0.11713372 C
   0.34046166    0.34425614    0.12033777 C
   0.50543381    0.33918646    0.11468780 C
   0.66800230    0.33256099    0.11309035 C
   0.72424230    0.44398077    0.11315992 C
   0.83233169    0.33158399    0.11236573 C
   0.88816487    0.44347627    0.11235675 C
   0.99828142    0.49990029    0.11223839 C
   0.05430875    0.61199962    0.11219634 C
   0.16259021    0.49869240    0.11455852 C
   0.21973256    0.61308207    0.11445779 C
   0.66916279    0.49930634    0.11329402 C
   0.72576820    0.61248586    0.11324921 C
   0.83439336    0.49992772    0.11280365 C
   0.89039535    0.61193669    0.11278774 C
   1.00062451    0.66843766    0.11230037 C
   0.05666579    0.78026769    0.11228828 C
   0.16439940    0.66805513    0.11277003 C
   0.22121005    0.77958462    0.11286739 C
   0.38404083    0.77359396    0.11674894 C
   0.55204039    0.76738702    0.11989798 C
   0.72202980    0.77247528    0.11448486 C
   0.83620475    0.66785517    0.11310658 C
   0.89131736    0.77925556    0.11301605 C
   1.00211172    0.83616726    0.11254196 C
   0.05761613    0.94799343    0.11273957 C
   0.16726750    0.83630335    0.11219443 C
   0.22376922    0.94809301    0.11246111 C
   0.33184263    0.83281990    0.11402865 C
   0.38888689    0.94445021    0.11334033 C
   0.49561117    0.82664442    0.11755037 C
   0.55230881    0.93829114    0.11485041 C
   0.66628478    0.82777157    0.11589784 C
   0.72037966    0.93932714    0.11410973 C
   0.83362058    0.83189187    0.11333283 C
   0.88891864    0.94414973    0.11307001 C
   0.21445028    0.44572330    0.11822350 N
   0.39284976    0.44551936    0.12753813 N
   0.56399787    0.44894687    0.11385489 N
   0.32453758    0.66594921    0.11792597 N
   0.50304785    0.66603024    0.12692257 N
   0.67089537    0.66274881    0.11369024 N
