NiW_NC-prerelax
1.0
  14.80200000    0.00000000    0.00000000
  -7.40100000   12.81890803    0.00000000
   0.00000000    0.00000000   15.00000000
Ni W C N
1 1 62 6
direct
   0.52724816    0.55588277    0.12166330 Ni
   0.36221116    0.55613261    0.15864925 W
   1.00004861    1.00032604    0.11295839 C
   0.05595665    0.11223188    0.11296969 C
   0.16833624    1.00310549    0.11302280 C
   0.22427759    0.11511411    0.11317833 C
   0.33406497    1.00172804    0.11292395 C
   0.39006536    0.11372067    0.11301783 C
   0.49962575    0.99946122    0.11284398 C
   0.55558553    0.11136420    0.11299111 C
   0.66498049    0.99653197    0.11302219 C
   0.72102496    0.10856103    0.11299858 C
   0.83216980    0.99798100    0.11290791 C
   0.88811929    0.10996443    0.11293463 C
   0.99967777    0.16628907    0.11302878 C
   0.05486618    0.27815321    0.11322010 C
   0.16814172    0.17041067    0.11333872 C
   0.22328284    0.28209643    0.11507627 C
   0.33597786    0.17134577    0.11329247 C
   0.39308437    0.28359379    0.11491068 C
   0.50049897    0.16829821    0.11318605 C
   0.55726777    0.28051849    0.11356311 C
   0.66619659    0.16523061    0.11311677 C
   0.72230190    0.27677965    0.11309868 C
   0.83222162    0.16484882    0.11307284 C
   0.88788157    0.27660438    0.11309131 C
   0.99881508    0.33294234    0.11329314 C
   0.05465829    0.44426416    0.11354774 C
   0.16553887    0.33538919    0.11422991 C
   0.33690285    0.33954129    0.11813761 C
   0.50454947    0.33943935    0.11480997 C
   0.66785898    0.33335268    0.11326091 C
   0.72398742    0.44443397    0.11313867 C
   0.83311420    0.33259494    0.11308862 C
   0.88910093    0.44391961    0.11293676 C
   0.99989953    0.50010276    0.11318670 C
   0.05566663    0.61162042    0.11316052 C
   0.16594761    0.49929616    0.11516124 C
   0.22247543    0.61241614    0.11489140 C
   0.66849413    0.49950214    0.11395302 C
   0.72491686    0.61225261    0.11386204 C
   0.83471238    0.50021191    0.11285707 C
   0.89041524    0.61156778    0.11285435 C
   1.00108504    0.66783161    0.11292406 C
   0.05642661    0.77916102    0.11308154 C
   0.16624034    0.66744210    0.11331746 C
   0.22172396    0.77876866    0.11305392 C
   0.38597121    0.77630882    0.11341468 C
   0.55331719    0.77226118    0.11734067 C
   0.72100932    0.77226618    0.11447688 C
   0.83549324    0.66733664    0.11305404 C
   0.89041521    0.77841213    0.11315159 C
   1.00142975    0.83496379    0.11306597 C
   0.05683246    0.94647002    0.11309319 C
   0.16717423    0.83511914    0.11303538 C
   0.22328841    0.94684379    0.11305401 C
   0.33257182    0.83355064    0.11286032 C
   0.38930133    0.94538704    0.11287220 C
   0.49701705    0.82959586    0.11440052 C
   0.55358217    0.94124698    0.11304493 C
   0.66543415    0.82813143    0.11444291 C
   0.72047873    0.94033153    0.11305310 C
   0.83261895    0.83118419    0.11335779 C
   0.88802823    0.94340028    0.11305364 C
   0.21695645    0.44387177    0.11607920 N
   0.38732482    0.44370065    0.12877759 N
   0.56247041    0.44889334    0.11588082 N
   0.32889276    0.66786005    0.11486998 N
   0.49961376    0.66815846    0.12788468 N
   0.66947475    0.66281069    0.11548152 N
