TiOs_NC-prerelax
1.0
  14.80200000    0.00000000    0.00000000
  -7.40100000   12.81890803    0.00000000
   0.00000000    0.00000000   15.00000000
Ti Os C N
1 1 62 6
direct
   0.52932209    0.55603810    0.16927389 Ti
   0.36943553    0.55598239    0.11998605 Os
   1.00008317    1.00052380    0.11224053 C
   0.05589565    0.11224548    0.11306434 C
   0.16782949    1.00258801    0.11266882 C
   0.22369231    0.11418730    0.11367576 C
   0.33359027    1.00070394    0.11261994 C
   0.38952910    0.11236596    0.11256285 C
   0.49943047    0.99951302    0.11290131 C
   0.55533385    0.11118718    0.11222708 C
   0.66540913    0.99757871    0.11338217 C
   0.72109339    0.10909939    0.11254962 C
   0.83313479    0.99937352    0.11238692 C
   0.88886929    0.11101675    0.11257933 C
   1.00027830    0.16714477    0.11319061 C
   0.05534712    0.27906476    0.11399882 C
   0.16765209    0.16972675    0.11417424 C
   0.22233250    0.28110548    0.11674135 C
   0.33540076    0.16973423    0.11371368 C
   0.39221984    0.28114926    0.11636938 C
   0.50008827    0.16742105    0.11226615 C
   0.55684081    0.27938302    0.11192444 C
   0.66612729    0.16549397    0.11229224 C
   0.72210175    0.27688530    0.11177422 C
   0.83235079    0.16538172    0.11266878 C
   0.88766925    0.27678339    0.11288465 C
   0.99839193    0.33293002    0.11369677 C
   0.05385333    0.44397214    0.11419904 C
   0.16581347    0.33600006    0.11567084 C
   0.33518942    0.33639187    0.12180486 C
   0.50406801    0.33744202    0.11407006 C
   0.66753993    0.33319422    0.11116715 C
   0.72324851    0.44433730    0.11007236 C
   0.83285484    0.33277806    0.11231787 C
   0.88848703    0.44404211    0.11215993 C
   0.99910602    0.50008822    0.11330683 C
   0.05479781    0.61147280    0.11325448 C
   0.16449065    0.49919645    0.11502077 C
   0.22115566    0.61255574    0.11494558 C
   0.66733476    0.49920326    0.10998324 C
   0.72399059    0.61250019    0.10992060 C
   0.83388165    0.50014781    0.11082319 C
   0.88951699    0.61138364    0.11076574 C
   1.00022910    0.66751220    0.11204004 C
   0.05585034    0.77880333    0.11216187 C
   0.16566794    0.66766233    0.11408141 C
   0.22125546    0.77875227    0.11354495 C
   0.38570887    0.77578327    0.11537136 C
   0.55474820    0.77551175    0.12136161 C
   0.72257996    0.77435286    0.11382536 C
   0.83475885    0.66724388    0.10996383 C
   0.89020945    0.77842299    0.11101113 C
   1.00103579    0.83470353    0.11163604 C
   0.05650056    0.94617745    0.11228645 C
   0.16665466    0.83483937    0.11276324 C
   0.22273759    0.94628827    0.11268290 C
   0.33211031    0.83267980    0.11380236 C
   0.38890127    0.94459604    0.11306831 C
   0.49715495    0.83076182    0.11634233 C
   0.55379386    0.94211641    0.11384771 C
   0.66702931    0.83067529    0.11600976 C
   0.72163249    0.94205929    0.11340126 C
   0.83340808    0.83234947    0.11174542 C
   0.88861536    0.94430896    0.11213113 C
   0.21776454    0.44596052    0.11516504 N
   0.38834707    0.43901267    0.13431136 N
   0.56086493    0.44584494    0.11409445 N
   0.32769865    0.66586220    0.11492553 N
   0.50533645    0.67289809    0.13379785 N
   0.67096806    0.66593785    0.11390086 N
