NiZn_NC-prerelax
1.0
  14.80200000    0.00000000    0.00000000
  -7.40100000   12.81890803    0.00000000
   0.00000000    0.00000000   15.00000000
Ni Zn C N
1 1 62 6
direct
   0.52692945    0.55579068    0.11966123 Ni
   0.36135372    0.55580802    0.14338970 Zn
   1.00115139    1.00192648    0.11296774 C
   0.05715704    0.11407315    0.11383708 C
   0.16909499    1.00479094    0.11281197 C
   0.22522181    0.11684035    0.11421859 C
   0.33430715    1.00190438    0.11267896 C
   0.39064954    0.11385399    0.11315736 C
   0.49908468    0.99763805    0.11361795 C
   0.55523561    0.10980953    0.11291220 C
   0.66413231    0.99477606    0.11397860 C
   0.72010072    0.10687440    0.11273444 C
   0.83250978    0.99783741    0.11306798 C
   0.88813668    0.10980974    0.11272979 C
   1.00014935    0.16728653    0.11356493 C
   0.05480696    0.27893883    0.11435234 C
   0.16976708    0.17328792    0.11518433 C
   0.22477164    0.28489068    0.11796199 C
   0.33697357    0.17228974    0.11434198 C
   0.39434366    0.28382613    0.11617345 C
   0.50076697    0.16754985    0.11313715 C
   0.55765062    0.27982052    0.11346199 C
   0.66560167    0.16378392    0.11272298 C
   0.72191075    0.27567702    0.11259675 C
   0.83146278    0.16363349    0.11250226 C
   0.88684101    0.27551993    0.11232100 C
   0.99748961    0.33225014    0.11309394 C
   0.05228405    0.44380197    0.11292067 C
   0.16625582    0.33803087    0.11713374 C
   0.34046212    0.34425665    0.12033782 C
   0.50543370    0.33918641    0.11468779 C
   0.66800240    0.33256096    0.11309034 C
   0.72424233    0.44398082    0.11315988 C
   0.83233140    0.33158387    0.11236572 C
   0.88816501    0.44347608    0.11235679 C
   0.99828150    0.49990047    0.11223839 C
   0.05430917    0.61199980    0.11219633 C
   0.16259007    0.49869225    0.11455852 C
   0.21973272    0.61308247    0.11445778 C
   0.66916283    0.49930617    0.11329400 C
   0.72576805    0.61248580    0.11324920 C
   0.83439334    0.49992779    0.11280371 C
   0.89039535    0.61193674    0.11278779 C
   1.00062440    0.66843764    0.11230037 C
   0.05666597    0.78026788    0.11228827 C
   0.16439916    0.66805497    0.11277001 C
   0.22121015    0.77958473    0.11286738 C
   0.38404079    0.77359387    0.11674893 C
   0.55204039    0.76738652    0.11989801 C
   0.72202980    0.77247510    0.11448485 C
   0.83620489    0.66785517    0.11310655 C
   0.89131743    0.77925556    0.11301605 C
   1.00211168    0.83616713    0.11254193 C
   0.05761624    0.94799367    0.11273957 C
   0.16726738    0.83630344    0.11219447 C
   0.22376917    0.94809291    0.11246110 C
   0.33184274    0.83281992    0.11402863 C
   0.38888685    0.94445017    0.11334030 C
   0.49561122    0.82664453    0.11755036 C
   0.55230882    0.93829130    0.11485040 C
   0.66628508    0.82777184    0.11589783 C
   0.72037973    0.93932711    0.11410973 C
   0.83362038    0.83189187    0.11333281 C
   0.88891875    0.94414999    0.11307004 C
   0.21445025    0.44572335    0.11822347 N
   0.39284948    0.44551892    0.12753813 N
   0.56399768    0.44894677    0.11385488 N
   0.32453775    0.66594916    0.11792599 N
   0.50304790    0.66603052    0.12692257 N
   0.67089541    0.66274889    0.11369023 N
