ZnY_NC-prerelax
1.0
  14.80200000    0.00000000    0.00000000
  -7.40100000   12.81890803    0.00000000
   0.00000000    0.00000000   15.00000000
Zn Y C N
1 1 62 6
direct
   0.52278056    0.55545907    0.10819839 Zn
   0.35073601    0.55617746    0.20162935 Y
   1.00109581    1.00139067    0.11260076 C
   0.05669990    0.11318396    0.11254234 C
   0.16892196    1.00397158    0.11297779 C
   0.22479176    0.11578687    0.11380505 C
   0.33424152    1.00168870    0.11215984 C
   0.39042902    0.11351094    0.11260179 C
   0.49940006    0.99864068    0.11216720 C
   0.55557888    0.11039740    0.11246678 C
   0.66489689    0.99598856    0.11334866 C
   0.72086766    0.10778396    0.11280146 C
   0.83282280    0.99825938    0.11242643 C
   0.88847912    0.11010027    0.11219586 C
   1.00018247    0.16695222    0.11213447 C
   0.05475931    0.27851754    0.11142134 C
   0.16881799    0.17165013    0.11368472 C
   0.22331832    0.28260269    0.11649327 C
   0.33664880    0.17177825    0.11373624 C
   0.39353903    0.28284480    0.11605178 C
   0.50074298    0.16738803    0.11263881 C
   0.55776542    0.27905491    0.11247505 C
   0.66619075    0.16447648    0.11280790 C
   0.72249624    0.27617619    0.11297627 C
   0.83215590    0.16437812    0.11249996 C
   0.88761016    0.27609436    0.11224973 C
   0.99830462    0.33260742    0.11122354 C
   0.05364514    0.44401546    0.11016808 C
   0.16599382    0.33724865    0.11256778 C
   0.33752933    0.34057194    0.12543746 C
   0.50511340    0.33760027    0.11278837 C
   0.66836479    0.33278025    0.11267453 C
   0.72447633    0.44418331    0.11251211 C
   0.83310310    0.33214355    0.11280537 C
   0.88897581    0.44368658    0.11286752 C
   0.99943196    0.49996616    0.11152243 C
   0.05536181    0.61178036    0.11144644 C
   0.16433974    0.49861707    0.10792792 C
   0.22158367    0.61309255    0.10770705 C
   0.66859875    0.49880303    0.11034282 C
   0.72562740    0.61289741    0.11025067 C
   0.83483055    0.50001165    0.11315750 C
   0.89068486    0.61175417    0.11310010 C
   1.00116886    0.66805338    0.11273728 C
   0.05683292    0.77962303    0.11267397 C
   0.16549503    0.66769622    0.10991156 C
   0.22149471    0.77910880    0.11088274 C
   0.38454762    0.77449483    0.11176159 C
   0.55268374    0.77107502    0.12421521 C
   0.72325482    0.77397198    0.11232407 C
   0.83609326    0.66754262    0.11236604 C
   0.89142786    0.77895703    0.11250557 C
   1.00218011    0.83556224    0.11290142 C
   0.05761037    0.94729534    0.11289346 C
   0.16735358    0.83565143    0.11207789 C
   0.22362538    0.94739721    0.11248025 C
   0.33204925    0.83324875    0.11093373 C
   0.38908724    0.94483911    0.11181004 C
   0.49652839    0.82920088    0.11554408 C
   0.55308669    0.94018128    0.11306563 C
   0.66650356    0.82879492    0.11526303 C
   0.72076131    0.93991361    0.11326352 C
   0.83450413    0.83263676    0.11222764 C
   0.88923943    0.94436370    0.11253228 C
   0.21665996    0.44488521    0.11189168 N
   0.38542735    0.43921741    0.14807225 N
   0.56337040    0.44533900    0.10759069 N
   0.32766993    0.66684179    0.11113163 N
   0.50204580    0.67231888    0.14655543 N
   0.67370390    0.66620642    0.10736640 N
